4000
Lattice="40.00000000 0.0 0.0 0.0 40.00000000 0.0 0.0 0.0 40.00000000" Properties=species:S:1:pos:R:3
Ag  0.00000000  0.00000000  0.00000000
Ag  2.00000000  2.00000000  0.00000000
Ag  0.00000000  2.00000000  2.00000000
Ag  2.00000000  0.00000000  2.00000000
Ag  4.00000000  0.00000000  0.00000000
Ag  6.00000000  2.00000000  0.00000000
Ag  4.00000000  2.00000000  2.00000000
Ag  6.00000000  0.00000000  2.00000000
Ag  8.00000000  0.00000000  0.00000000
Ag  10.00000000  2.00000000  0.00000000
Ag  8.00000000  2.00000000  2.00000000
Ag  10.00000000  0.00000000  2.00000000
Ag  12.00000000  0.00000000  0.00000000
Ag  14.00000000  2.00000000  0.00000000
Ag  12.00000000  2.00000000  2.00000000
Ag  14.00000000  0.00000000  2.00000000
Ag  16.00000000  0.00000000  0.00000000
Ag  18.00000000  2.00000000  0.00000000
Ag  16.00000000  2.00000000  2.00000000
Ag  18.00000000  0.00000000  2.00000000
Ag  20.00000000  0.00000000  0.00000000
Ag  22.00000000  2.00000000  0.00000000
Ag  20.00000000  2.00000000  2.00000000
Ag  22.00000000  0.00000000  2.00000000
Ag  24.00000000  0.00000000  0.00000000
Ag  26.00000000  2.00000000  0.00000000
Ag  24.00000000  2.00000000  2.00000000
Ag  26.00000000  0.00000000  2.00000000
Ag  28.00000000  0.00000000  0.00000000
Ag  30.00000000  2.00000000  0.00000000
Ag  28.00000000  2.00000000  2.00000000
Ag  30.00000000  0.00000000  2.00000000
Ag  32.00000000  0.00000000  0.00000000
Ag  34.00000000  2.00000000  0.00000000
Ag  32.00000000  2.00000000  2.00000000
Ag  34.00000000  0.00000000  2.00000000
Ag  36.00000000  0.00000000  0.00000000
Ag  38.00000000  2.00000000  0.00000000
Ag  36.00000000  2.00000000  2.00000000
Ag  38.00000000  0.00000000  2.00000000
Ag  0.00000000  4.00000000  0.00000000
Ag  2.00000000  6.00000000  0.00000000
Ag  0.00000000  6.00000000  2.00000000
Ag  2.00000000  4.00000000  2.00000000
Ag  4.00000000  4.00000000  0.00000000
Ag  6.00000000  6.00000000  0.00000000
Ag  4.00000000  6.00000000  2.00000000
Ag  6.00000000  4.00000000  2.00000000
Ag  8.00000000  4.00000000  0.00000000
Ag  10.00000000  6.00000000  0.00000000
Ag  8.00000000  6.00000000  2.00000000
Ag  10.00000000  4.00000000  2.00000000
Ag  12.00000000  4.00000000  0.00000000
Ag  14.00000000  6.00000000  0.00000000
Ag  12.00000000  6.00000000  2.00000000
Ag  14.00000000  4.00000000  2.00000000
Ag  16.00000000  4.00000000  0.00000000
Ag  18.00000000  6.00000000  0.00000000
Ag  16.00000000  6.00000000  2.00000000
Ag  18.00000000  4.00000000  2.00000000
Ag  20.00000000  4.00000000  0.00000000
Ag  22.00000000  6.00000000  0.00000000
Ag  20.00000000  6.00000000  2.00000000
Ag  22.00000000  4.00000000  2.00000000
Ag  24.00000000  4.00000000  0.00000000
Ag  26.00000000  6.00000000  0.00000000
Ag  24.00000000  6.00000000  2.00000000
Ag  26.00000000  4.00000000  2.00000000
Ag  28.00000000  4.00000000  0.00000000
Ag  30.00000000  6.00000000  0.00000000
Ag  28.00000000  6.00000000  2.00000000
Ag  30.00000000  4.00000000  2.00000000
Ag  32.00000000  4.00000000  0.00000000
Ag  34.00000000  6.00000000  0.00000000
Ag  32.00000000  6.00000000  2.00000000
Ag  34.00000000  4.00000000  2.00000000
Ag  36.00000000  4.00000000  0.00000000
Ag  38.00000000  6.00000000  0.00000000
Ag  36.00000000  6.00000000  2.00000000
Ag  38.00000000  4.00000000  2.00000000
Ag  0.00000000  8.00000000  0.00000000
Ag  2.00000000  10.00000000  0.00000000
Ag  0.00000000  10.00000000  2.00000000
Ag  2.00000000  8.00000000  2.00000000
Ag  4.00000000  8.00000000  0.00000000
Ag  6.00000000  10.00000000  0.00000000
Ag  4.00000000  10.00000000  2.00000000
Ag  6.00000000  8.00000000  2.00000000
Ag  8.00000000  8.00000000  0.00000000
Ag  10.00000000  10.00000000  0.00000000
Ag  8.00000000  10.00000000  2.00000000
Ag  10.00000000  8.00000000  2.00000000
Ag  12.00000000  8.00000000  0.00000000
Ag  14.00000000  10.00000000  0.00000000
Ag  12.00000000  10.00000000  2.00000000
Ag  14.00000000  8.00000000  2.00000000
Ag  16.00000000  8.00000000  0.00000000
Ag  18.00000000  10.00000000  0.00000000
Ag  16.00000000  10.00000000  2.00000000
Ag  18.00000000  8.00000000  2.00000000
Ag  20.00000000  8.00000000  0.00000000
Ag  22.00000000  10.00000000  0.00000000
Ag  20.00000000  10.00000000  2.00000000
Ag  22.00000000  8.00000000  2.00000000
Ag  24.00000000  8.00000000  0.00000000
Ag  26.00000000  10.00000000  0.00000000
Ag  24.00000000  10.00000000  2.00000000
Ag  26.00000000  8.00000000  2.00000000
Ag  28.00000000  8.00000000  0.00000000
Ag  30.00000000  10.00000000  0.00000000
Ag  28.00000000  10.00000000  2.00000000
Ag  30.00000000  8.00000000  2.00000000
Ag  32.00000000  8.00000000  0.00000000
Ag  34.00000000  10.00000000  0.00000000
Ag  32.00000000  10.00000000  2.00000000
Ag  34.00000000  8.00000000  2.00000000
Ag  36.00000000  8.00000000  0.00000000
Ag  38.00000000  10.00000000  0.00000000
Ag  36.00000000  10.00000000  2.00000000
Ag  38.00000000  8.00000000  2.00000000
Ag  0.00000000  12.00000000  0.00000000
Ag  2.00000000  14.00000000  0.00000000
Ag  0.00000000  14.00000000  2.00000000
Ag  2.00000000  12.00000000  2.00000000
Ag  4.00000000  12.00000000  0.00000000
Ag  6.00000000  14.00000000  0.00000000
Ag  4.00000000  14.00000000  2.00000000
Ag  6.00000000  12.00000000  2.00000000
Ag  8.00000000  12.00000000  0.00000000
Ag  10.00000000  14.00000000  0.00000000
Ag  8.00000000  14.00000000  2.00000000
Ag  10.00000000  12.00000000  2.00000000
Ag  12.00000000  12.00000000  0.00000000
Ag  14.00000000  14.00000000  0.00000000
Ag  12.00000000  14.00000000  2.00000000
Ag  14.00000000  12.00000000  2.00000000
Ag  16.00000000  12.00000000  0.00000000
Ag  18.00000000  14.00000000  0.00000000
Ag  16.00000000  14.00000000  2.00000000
Ag  18.00000000  12.00000000  2.00000000
Ag  20.00000000  12.00000000  0.00000000
Ag  22.00000000  14.00000000  0.00000000
Ag  20.00000000  14.00000000  2.00000000
Ag  22.00000000  12.00000000  2.00000000
Ag  24.00000000  12.00000000  0.00000000
Ag  26.00000000  14.00000000  0.00000000
Ag  24.00000000  14.00000000  2.00000000
Ag  26.00000000  12.00000000  2.00000000
Ag  28.00000000  12.00000000  0.00000000
Ag  30.00000000  14.00000000  0.00000000
Ag  28.00000000  14.00000000  2.00000000
Ag  30.00000000  12.00000000  2.00000000
Ag  32.00000000  12.00000000  0.00000000
Ag  34.00000000  14.00000000  0.00000000
Ag  32.00000000  14.00000000  2.00000000
Ag  34.00000000  12.00000000  2.00000000
Ag  36.00000000  12.00000000  0.00000000
Ag  38.00000000  14.00000000  0.00000000
Ag  36.00000000  14.00000000  2.00000000
Ag  38.00000000  12.00000000  2.00000000
Ag  0.00000000  16.00000000  0.00000000
Ag  2.00000000  18.00000000  0.00000000
Ag  0.00000000  18.00000000  2.00000000
Ag  2.00000000  16.00000000  2.00000000
Ag  4.00000000  16.00000000  0.00000000
Ag  6.00000000  18.00000000  0.00000000
Ag  4.00000000  18.00000000  2.00000000
Ag  6.00000000  16.00000000  2.00000000
Ag  8.00000000  16.00000000  0.00000000
Ag  10.00000000  18.00000000  0.00000000
Ag  8.00000000  18.00000000  2.00000000
Ag  10.00000000  16.00000000  2.00000000
Ag  12.00000000  16.00000000  0.00000000
Ag  14.00000000  18.00000000  0.00000000
Ag  12.00000000  18.00000000  2.00000000
Ag  14.00000000  16.00000000  2.00000000
Ag  16.00000000  16.00000000  0.00000000
Ag  18.00000000  18.00000000  0.00000000
Ag  16.00000000  18.00000000  2.00000000
Ag  18.00000000  16.00000000  2.00000000
Ag  20.00000000  16.00000000  0.00000000
Ag  22.00000000  18.00000000  0.00000000
Ag  20.00000000  18.00000000  2.00000000
Ag  22.00000000  16.00000000  2.00000000
Ag  24.00000000  16.00000000  0.00000000
Ag  26.00000000  18.00000000  0.00000000
Ag  24.00000000  18.00000000  2.00000000
Ag  26.00000000  16.00000000  2.00000000
Ag  28.00000000  16.00000000  0.00000000
Ag  30.00000000  18.00000000  0.00000000
Ag  28.00000000  18.00000000  2.00000000
Ag  30.00000000  16.00000000  2.00000000
Ag  32.00000000  16.00000000  0.00000000
Ag  34.00000000  18.00000000  0.00000000
Ag  32.00000000  18.00000000  2.00000000
Ag  34.00000000  16.00000000  2.00000000
Ag  36.00000000  16.00000000  0.00000000
Ag  38.00000000  18.00000000  0.00000000
Ag  36.00000000  18.00000000  2.00000000
Ag  38.00000000  16.00000000  2.00000000
Ag  0.00000000  20.00000000  0.00000000
Ag  2.00000000  22.00000000  0.00000000
Ag  0.00000000  22.00000000  2.00000000
Ag  2.00000000  20.00000000  2.00000000
Ag  4.00000000  20.00000000  0.00000000
Ag  6.00000000  22.00000000  0.00000000
Ag  4.00000000  22.00000000  2.00000000
Ag  6.00000000  20.00000000  2.00000000
Ag  8.00000000  20.00000000  0.00000000
Ag  10.00000000  22.00000000  0.00000000
Ag  8.00000000  22.00000000  2.00000000
Ag  10.00000000  20.00000000  2.00000000
Ag  12.00000000  20.00000000  0.00000000
Ag  14.00000000  22.00000000  0.00000000
Ag  12.00000000  22.00000000  2.00000000
Ag  14.00000000  20.00000000  2.00000000
Ag  16.00000000  20.00000000  0.00000000
Ag  18.00000000  22.00000000  0.00000000
Ag  16.00000000  22.00000000  2.00000000
Ag  18.00000000  20.00000000  2.00000000
Ag  20.00000000  20.00000000  0.00000000
Ag  22.00000000  22.00000000  0.00000000
Ag  20.00000000  22.00000000  2.00000000
Ag  22.00000000  20.00000000  2.00000000
Ag  24.00000000  20.00000000  0.00000000
Ag  26.00000000  22.00000000  0.00000000
Ag  24.00000000  22.00000000  2.00000000
Ag  26.00000000  20.00000000  2.00000000
Ag  28.00000000  20.00000000  0.00000000
Ag  30.00000000  22.00000000  0.00000000
Ag  28.00000000  22.00000000  2.00000000
Ag  30.00000000  20.00000000  2.00000000
Ag  32.00000000  20.00000000  0.00000000
Ag  34.00000000  22.00000000  0.00000000
Ag  32.00000000  22.00000000  2.00000000
Ag  34.00000000  20.00000000  2.00000000
Ag  36.00000000  20.00000000  0.00000000
Ag  38.00000000  22.00000000  0.00000000
Ag  36.00000000  22.00000000  2.00000000
Ag  38.00000000  20.00000000  2.00000000
Ag  0.00000000  24.00000000  0.00000000
Ag  2.00000000  26.00000000  0.00000000
Ag  0.00000000  26.00000000  2.00000000
Ag  2.00000000  24.00000000  2.00000000
Ag  4.00000000  24.00000000  0.00000000
Ag  6.00000000  26.00000000  0.00000000
Ag  4.00000000  26.00000000  2.00000000
Ag  6.00000000  24.00000000  2.00000000
Ag  8.00000000  24.00000000  0.00000000
Ag  10.00000000  26.00000000  0.00000000
Ag  8.00000000  26.00000000  2.00000000
Ag  10.00000000  24.00000000  2.00000000
Ag  12.00000000  24.00000000  0.00000000
Ag  14.00000000  26.00000000  0.00000000
Ag  12.00000000  26.00000000  2.00000000
Ag  14.00000000  24.00000000  2.00000000
Ag  16.00000000  24.00000000  0.00000000
Ag  18.00000000  26.00000000  0.00000000
Ag  16.00000000  26.00000000  2.00000000
Ag  18.00000000  24.00000000  2.00000000
Ag  20.00000000  24.00000000  0.00000000
Ag  22.00000000  26.00000000  0.00000000
Ag  20.00000000  26.00000000  2.00000000
Ag  22.00000000  24.00000000  2.00000000
Ag  24.00000000  24.00000000  0.00000000
Ag  26.00000000  26.00000000  0.00000000
Ag  24.00000000  26.00000000  2.00000000
Ag  26.00000000  24.00000000  2.00000000
Ag  28.00000000  24.00000000  0.00000000
Ag  30.00000000  26.00000000  0.00000000
Ag  28.00000000  26.00000000  2.00000000
Ag  30.00000000  24.00000000  2.00000000
Ag  32.00000000  24.00000000  0.00000000
Ag  34.00000000  26.00000000  0.00000000
Ag  32.00000000  26.00000000  2.00000000
Ag  34.00000000  24.00000000  2.00000000
Ag  36.00000000  24.00000000  0.00000000
Ag  38.00000000  26.00000000  0.00000000
Ag  36.00000000  26.00000000  2.00000000
Ag  38.00000000  24.00000000  2.00000000
Ag  0.00000000  28.00000000  0.00000000
Ag  2.00000000  30.00000000  0.00000000
Ag  0.00000000  30.00000000  2.00000000
Ag  2.00000000  28.00000000  2.00000000
Ag  4.00000000  28.00000000  0.00000000
Ag  6.00000000  30.00000000  0.00000000
Ag  4.00000000  30.00000000  2.00000000
Ag  6.00000000  28.00000000  2.00000000
Ag  8.00000000  28.00000000  0.00000000
Ag  10.00000000  30.00000000  0.00000000
Ag  8.00000000  30.00000000  2.00000000
Ag  10.00000000  28.00000000  2.00000000
Ag  12.00000000  28.00000000  0.00000000
Ag  14.00000000  30.00000000  0.00000000
Ag  12.00000000  30.00000000  2.00000000
Ag  14.00000000  28.00000000  2.00000000
Ag  16.00000000  28.00000000  0.00000000
Ag  18.00000000  30.00000000  0.00000000
Ag  16.00000000  30.00000000  2.00000000
Ag  18.00000000  28.00000000  2.00000000
Ag  20.00000000  28.00000000  0.00000000
Ag  22.00000000  30.00000000  0.00000000
Ag  20.00000000  30.00000000  2.00000000
Ag  22.00000000  28.00000000  2.00000000
Ag  24.00000000  28.00000000  0.00000000
Ag  26.00000000  30.00000000  0.00000000
Ag  24.00000000  30.00000000  2.00000000
Ag  26.00000000  28.00000000  2.00000000
Ag  28.00000000  28.00000000  0.00000000
Ag  30.00000000  30.00000000  0.00000000
Ag  28.00000000  30.00000000  2.00000000
Ag  30.00000000  28.00000000  2.00000000
Ag  32.00000000  28.00000000  0.00000000
Ag  34.00000000  30.00000000  0.00000000
Ag  32.00000000  30.00000000  2.00000000
Ag  34.00000000  28.00000000  2.00000000
Ag  36.00000000  28.00000000  0.00000000
Ag  38.00000000  30.00000000  0.00000000
Ag  36.00000000  30.00000000  2.00000000
Ag  38.00000000  28.00000000  2.00000000
Ag  0.00000000  32.00000000  0.00000000
Ag  2.00000000  34.00000000  0.00000000
Ag  0.00000000  34.00000000  2.00000000
Ag  2.00000000  32.00000000  2.00000000
Ag  4.00000000  32.00000000  0.00000000
Ag  6.00000000  34.00000000  0.00000000
Ag  4.00000000  34.00000000  2.00000000
Ag  6.00000000  32.00000000  2.00000000
Ag  8.00000000  32.00000000  0.00000000
Ag  10.00000000  34.00000000  0.00000000
Ag  8.00000000  34.00000000  2.00000000
Ag  10.00000000  32.00000000  2.00000000
Ag  12.00000000  32.00000000  0.00000000
Ag  14.00000000  34.00000000  0.00000000
Ag  12.00000000  34.00000000  2.00000000
Ag  14.00000000  32.00000000  2.00000000
Ag  16.00000000  32.00000000  0.00000000
Ag  18.00000000  34.00000000  0.00000000
Ag  16.00000000  34.00000000  2.00000000
Ag  18.00000000  32.00000000  2.00000000
Ag  20.00000000  32.00000000  0.00000000
Ag  22.00000000  34.00000000  0.00000000
Ag  20.00000000  34.00000000  2.00000000
Ag  22.00000000  32.00000000  2.00000000
Ag  24.00000000  32.00000000  0.00000000
Ag  26.00000000  34.00000000  0.00000000
Ag  24.00000000  34.00000000  2.00000000
Ag  26.00000000  32.00000000  2.00000000
Ag  28.00000000  32.00000000  0.00000000
Ag  30.00000000  34.00000000  0.00000000
Ag  28.00000000  34.00000000  2.00000000
Ag  30.00000000  32.00000000  2.00000000
Ag  32.00000000  32.00000000  0.00000000
Ag  34.00000000  34.00000000  0.00000000
Ag  32.00000000  34.00000000  2.00000000
Ag  34.00000000  32.00000000  2.00000000
Ag  36.00000000  32.00000000  0.00000000
Ag  38.00000000  34.00000000  0.00000000
Ag  36.00000000  34.00000000  2.00000000
Ag  38.00000000  32.00000000  2.00000000
Ag  0.00000000  36.00000000  0.00000000
Ag  2.00000000  38.00000000  0.00000000
Ag  0.00000000  38.00000000  2.00000000
Ag  2.00000000  36.00000000  2.00000000
Ag  4.00000000  36.00000000  0.00000000
Ag  6.00000000  38.00000000  0.00000000
Ag  4.00000000  38.00000000  2.00000000
Ag  6.00000000  36.00000000  2.00000000
Ag  8.00000000  36.00000000  0.00000000
Ag  10.00000000  38.00000000  0.00000000
Ag  8.00000000  38.00000000  2.00000000
Ag  10.00000000  36.00000000  2.00000000
Ag  12.00000000  36.00000000  0.00000000
Ag  14.00000000  38.00000000  0.00000000
Ag  12.00000000  38.00000000  2.00000000
Ag  14.00000000  36.00000000  2.00000000
Ag  16.00000000  36.00000000  0.00000000
Ag  18.00000000  38.00000000  0.00000000
Ag  16.00000000  38.00000000  2.00000000
Ag  18.00000000  36.00000000  2.00000000
Ag  20.00000000  36.00000000  0.00000000
Ag  22.00000000  38.00000000  0.00000000
Ag  20.00000000  38.00000000  2.00000000
Ag  22.00000000  36.00000000  2.00000000
Ag  24.00000000  36.00000000  0.00000000
Ag  26.00000000  38.00000000  0.00000000
Ag  24.00000000  38.00000000  2.00000000
Ag  26.00000000  36.00000000  2.00000000
Ag  28.00000000  36.00000000  0.00000000
Ag  30.00000000  38.00000000  0.00000000
Ag  28.00000000  38.00000000  2.00000000
Ag  30.00000000  36.00000000  2.00000000
Ag  32.00000000  36.00000000  0.00000000
Ag  34.00000000  38.00000000  0.00000000
Ag  32.00000000  38.00000000  2.00000000
Ag  34.00000000  36.00000000  2.00000000
Ag  36.00000000  36.00000000  0.00000000
Ag  38.00000000  38.00000000  0.00000000
Ag  36.00000000  38.00000000  2.00000000
Ag  38.00000000  36.00000000  2.00000000
Ag  0.00000000  0.00000000  4.00000000
Ag  2.00000000  2.00000000  4.00000000
Ag  0.00000000  2.00000000  6.00000000
Ag  2.00000000  0.00000000  6.00000000
Ag  4.00000000  0.00000000  4.00000000
Ag  6.00000000  2.00000000  4.00000000
Ag  4.00000000  2.00000000  6.00000000
Ag  6.00000000  0.00000000  6.00000000
Ag  8.00000000  0.00000000  4.00000000
Ag  10.00000000  2.00000000  4.00000000
Ag  8.00000000  2.00000000  6.00000000
Ag  10.00000000  0.00000000  6.00000000
Ag  12.00000000  0.00000000  4.00000000
Ag  14.00000000  2.00000000  4.00000000
Ag  12.00000000  2.00000000  6.00000000
Ag  14.00000000  0.00000000  6.00000000
Ag  16.00000000  0.00000000  4.00000000
Ag  18.00000000  2.00000000  4.00000000
Ag  16.00000000  2.00000000  6.00000000
Ag  18.00000000  0.00000000  6.00000000
Ag  20.00000000  0.00000000  4.00000000
Ag  22.00000000  2.00000000  4.00000000
Ag  20.00000000  2.00000000  6.00000000
Ag  22.00000000  0.00000000  6.00000000
Ag  24.00000000  0.00000000  4.00000000
Ag  26.00000000  2.00000000  4.00000000
Ag  24.00000000  2.00000000  6.00000000
Ag  26.00000000  0.00000000  6.00000000
Ag  28.00000000  0.00000000  4.00000000
Ag  30.00000000  2.00000000  4.00000000
Ag  28.00000000  2.00000000  6.00000000
Ag  30.00000000  0.00000000  6.00000000
Ag  32.00000000  0.00000000  4.00000000
Ag  34.00000000  2.00000000  4.00000000
Ag  32.00000000  2.00000000  6.00000000
Ag  34.00000000  0.00000000  6.00000000
Ag  36.00000000  0.00000000  4.00000000
Ag  38.00000000  2.00000000  4.00000000
Ag  36.00000000  2.00000000  6.00000000
Ag  38.00000000  0.00000000  6.00000000
Ag  0.00000000  4.00000000  4.00000000
Ag  2.00000000  6.00000000  4.00000000
Ag  0.00000000  6.00000000  6.00000000
Ag  2.00000000  4.00000000  6.00000000
Ag  4.00000000  4.00000000  4.00000000
Ag  6.00000000  6.00000000  4.00000000
Ag  4.00000000  6.00000000  6.00000000
Ag  6.00000000  4.00000000  6.00000000
Ag  8.00000000  4.00000000  4.00000000
Ag  10.00000000  6.00000000  4.00000000
Ag  8.00000000  6.00000000  6.00000000
Ag  10.00000000  4.00000000  6.00000000
Ag  12.00000000  4.00000000  4.00000000
Ag  14.00000000  6.00000000  4.00000000
Ag  12.00000000  6.00000000  6.00000000
Ag  14.00000000  4.00000000  6.00000000
Ag  16.00000000  4.00000000  4.00000000
Ag  18.00000000  6.00000000  4.00000000
Ag  16.00000000  6.00000000  6.00000000
Ag  18.00000000  4.00000000  6.00000000
Ag  20.00000000  4.00000000  4.00000000
Ag  22.00000000  6.00000000  4.00000000
Ag  20.00000000  6.00000000  6.00000000
Ag  22.00000000  4.00000000  6.00000000
Ag  24.00000000  4.00000000  4.00000000
Ag  26.00000000  6.00000000  4.00000000
Ag  24.00000000  6.00000000  6.00000000
Ag  26.00000000  4.00000000  6.00000000
Ag  28.00000000  4.00000000  4.00000000
Ag  30.00000000  6.00000000  4.00000000
Ag  28.00000000  6.00000000  6.00000000
Ag  30.00000000  4.00000000  6.00000000
Ag  32.00000000  4.00000000  4.00000000
Ag  34.00000000  6.00000000  4.00000000
Ag  32.00000000  6.00000000  6.00000000
Ag  34.00000000  4.00000000  6.00000000
Ag  36.00000000  4.00000000  4.00000000
Ag  38.00000000  6.00000000  4.00000000
Ag  36.00000000  6.00000000  6.00000000
Ag  38.00000000  4.00000000  6.00000000
Ag  0.00000000  8.00000000  4.00000000
Ag  2.00000000  10.00000000  4.00000000
Ag  0.00000000  10.00000000  6.00000000
Ag  2.00000000  8.00000000  6.00000000
Ag  4.00000000  8.00000000  4.00000000
Ag  6.00000000  10.00000000  4.00000000
Ag  4.00000000  10.00000000  6.00000000
Ag  6.00000000  8.00000000  6.00000000
Ag  8.00000000  8.00000000  4.00000000
Ag  10.00000000  10.00000000  4.00000000
Ag  8.00000000  10.00000000  6.00000000
Ag  10.00000000  8.00000000  6.00000000
Ag  12.00000000  8.00000000  4.00000000
Ag  14.00000000  10.00000000  4.00000000
Ag  12.00000000  10.00000000  6.00000000
Ag  14.00000000  8.00000000  6.00000000
Ag  16.00000000  8.00000000  4.00000000
Ag  18.00000000  10.00000000  4.00000000
Ag  16.00000000  10.00000000  6.00000000
Ag  18.00000000  8.00000000  6.00000000
Ag  20.00000000  8.00000000  4.00000000
Ag  22.00000000  10.00000000  4.00000000
Ag  20.00000000  10.00000000  6.00000000
Ag  22.00000000  8.00000000  6.00000000
Ag  24.00000000  8.00000000  4.00000000
Ag  26.00000000  10.00000000  4.00000000
Ag  24.00000000  10.00000000  6.00000000
Ag  26.00000000  8.00000000  6.00000000
Ag  28.00000000  8.00000000  4.00000000
Ag  30.00000000  10.00000000  4.00000000
Ag  28.00000000  10.00000000  6.00000000
Ag  30.00000000  8.00000000  6.00000000
Ag  32.00000000  8.00000000  4.00000000
Ag  34.00000000  10.00000000  4.00000000
Ag  32.00000000  10.00000000  6.00000000
Ag  34.00000000  8.00000000  6.00000000
Ag  36.00000000  8.00000000  4.00000000
Ag  38.00000000  10.00000000  4.00000000
Ag  36.00000000  10.00000000  6.00000000
Ag  38.00000000  8.00000000  6.00000000
Ag  0.00000000  12.00000000  4.00000000
Ag  2.00000000  14.00000000  4.00000000
Ag  0.00000000  14.00000000  6.00000000
Ag  2.00000000  12.00000000  6.00000000
Ag  4.00000000  12.00000000  4.00000000
Ag  6.00000000  14.00000000  4.00000000
Ag  4.00000000  14.00000000  6.00000000
Ag  6.00000000  12.00000000  6.00000000
Ag  8.00000000  12.00000000  4.00000000
Ag  10.00000000  14.00000000  4.00000000
Ag  8.00000000  14.00000000  6.00000000
Ag  10.00000000  12.00000000  6.00000000
Ag  12.00000000  12.00000000  4.00000000
Ag  14.00000000  14.00000000  4.00000000
Ag  12.00000000  14.00000000  6.00000000
Ag  14.00000000  12.00000000  6.00000000
Ag  16.00000000  12.00000000  4.00000000
Ag  18.00000000  14.00000000  4.00000000
Ag  16.00000000  14.00000000  6.00000000
Ag  18.00000000  12.00000000  6.00000000
Ag  20.00000000  12.00000000  4.00000000
Ag  22.00000000  14.00000000  4.00000000
Ag  20.00000000  14.00000000  6.00000000
Ag  22.00000000  12.00000000  6.00000000
Ag  24.00000000  12.00000000  4.00000000
Ag  26.00000000  14.00000000  4.00000000
Ag  24.00000000  14.00000000  6.00000000
Ag  26.00000000  12.00000000  6.00000000
Ag  28.00000000  12.00000000  4.00000000
Ag  30.00000000  14.00000000  4.00000000
Ag  28.00000000  14.00000000  6.00000000
Ag  30.00000000  12.00000000  6.00000000
Ag  32.00000000  12.00000000  4.00000000
Ag  34.00000000  14.00000000  4.00000000
Ag  32.00000000  14.00000000  6.00000000
Ag  34.00000000  12.00000000  6.00000000
Ag  36.00000000  12.00000000  4.00000000
Ag  38.00000000  14.00000000  4.00000000
Ag  36.00000000  14.00000000  6.00000000
Ag  38.00000000  12.00000000  6.00000000
Ag  0.00000000  16.00000000  4.00000000
Ag  2.00000000  18.00000000  4.00000000
Ag  0.00000000  18.00000000  6.00000000
Ag  2.00000000  16.00000000  6.00000000
Ag  4.00000000  16.00000000  4.00000000
Ag  6.00000000  18.00000000  4.00000000
Ag  4.00000000  18.00000000  6.00000000
Ag  6.00000000  16.00000000  6.00000000
Ag  8.00000000  16.00000000  4.00000000
Ag  10.00000000  18.00000000  4.00000000
Ag  8.00000000  18.00000000  6.00000000
Ag  10.00000000  16.00000000  6.00000000
Ag  12.00000000  16.00000000  4.00000000
Ag  14.00000000  18.00000000  4.00000000
Ag  12.00000000  18.00000000  6.00000000
Ag  14.00000000  16.00000000  6.00000000
Ag  16.00000000  16.00000000  4.00000000
Ag  18.00000000  18.00000000  4.00000000
Ag  16.00000000  18.00000000  6.00000000
Ag  18.00000000  16.00000000  6.00000000
Ag  20.00000000  16.00000000  4.00000000
Ag  22.00000000  18.00000000  4.00000000
Ag  20.00000000  18.00000000  6.00000000
Ag  22.00000000  16.00000000  6.00000000
Ag  24.00000000  16.00000000  4.00000000
Ag  26.00000000  18.00000000  4.00000000
Ag  24.00000000  18.00000000  6.00000000
Ag  26.00000000  16.00000000  6.00000000
Ag  28.00000000  16.00000000  4.00000000
Ag  30.00000000  18.00000000  4.00000000
Ag  28.00000000  18.00000000  6.00000000
Ag  30.00000000  16.00000000  6.00000000
Ag  32.00000000  16.00000000  4.00000000
Ag  34.00000000  18.00000000  4.00000000
Ag  32.00000000  18.00000000  6.00000000
Ag  34.00000000  16.00000000  6.00000000
Ag  36.00000000  16.00000000  4.00000000
Ag  38.00000000  18.00000000  4.00000000
Ag  36.00000000  18.00000000  6.00000000
Ag  38.00000000  16.00000000  6.00000000
Ag  0.00000000  20.00000000  4.00000000
Ag  2.00000000  22.00000000  4.00000000
Ag  0.00000000  22.00000000  6.00000000
Ag  2.00000000  20.00000000  6.00000000
Ag  4.00000000  20.00000000  4.00000000
Ag  6.00000000  22.00000000  4.00000000
Ag  4.00000000  22.00000000  6.00000000
Ag  6.00000000  20.00000000  6.00000000
Ag  8.00000000  20.00000000  4.00000000
Ag  10.00000000  22.00000000  4.00000000
Ag  8.00000000  22.00000000  6.00000000
Ag  10.00000000  20.00000000  6.00000000
Ag  12.00000000  20.00000000  4.00000000
Ag  14.00000000  22.00000000  4.00000000
Ag  12.00000000  22.00000000  6.00000000
Ag  14.00000000  20.00000000  6.00000000
Ag  16.00000000  20.00000000  4.00000000
Ag  18.00000000  22.00000000  4.00000000
Ag  16.00000000  22.00000000  6.00000000
Ag  18.00000000  20.00000000  6.00000000
Ag  20.00000000  20.00000000  4.00000000
Ag  22.00000000  22.00000000  4.00000000
Ag  20.00000000  22.00000000  6.00000000
Ag  22.00000000  20.00000000  6.00000000
Ag  24.00000000  20.00000000  4.00000000
Ag  26.00000000  22.00000000  4.00000000
Ag  24.00000000  22.00000000  6.00000000
Ag  26.00000000  20.00000000  6.00000000
Ag  28.00000000  20.00000000  4.00000000
Ag  30.00000000  22.00000000  4.00000000
Ag  28.00000000  22.00000000  6.00000000
Ag  30.00000000  20.00000000  6.00000000
Ag  32.00000000  20.00000000  4.00000000
Ag  34.00000000  22.00000000  4.00000000
Ag  32.00000000  22.00000000  6.00000000
Ag  34.00000000  20.00000000  6.00000000
Ag  36.00000000  20.00000000  4.00000000
Ag  38.00000000  22.00000000  4.00000000
Ag  36.00000000  22.00000000  6.00000000
Ag  38.00000000  20.00000000  6.00000000
Ag  0.00000000  24.00000000  4.00000000
Ag  2.00000000  26.00000000  4.00000000
Ag  0.00000000  26.00000000  6.00000000
Ag  2.00000000  24.00000000  6.00000000
Ag  4.00000000  24.00000000  4.00000000
Ag  6.00000000  26.00000000  4.00000000
Ag  4.00000000  26.00000000  6.00000000
Ag  6.00000000  24.00000000  6.00000000
Ag  8.00000000  24.00000000  4.00000000
Ag  10.00000000  26.00000000  4.00000000
Ag  8.00000000  26.00000000  6.00000000
Ag  10.00000000  24.00000000  6.00000000
Ag  12.00000000  24.00000000  4.00000000
Ag  14.00000000  26.00000000  4.00000000
Ag  12.00000000  26.00000000  6.00000000
Ag  14.00000000  24.00000000  6.00000000
Ag  16.00000000  24.00000000  4.00000000
Ag  18.00000000  26.00000000  4.00000000
Ag  16.00000000  26.00000000  6.00000000
Ag  18.00000000  24.00000000  6.00000000
Ag  20.00000000  24.00000000  4.00000000
Ag  22.00000000  26.00000000  4.00000000
Ag  20.00000000  26.00000000  6.00000000
Ag  22.00000000  24.00000000  6.00000000
Ag  24.00000000  24.00000000  4.00000000
Ag  26.00000000  26.00000000  4.00000000
Ag  24.00000000  26.00000000  6.00000000
Ag  26.00000000  24.00000000  6.00000000
Ag  28.00000000  24.00000000  4.00000000
Ag  30.00000000  26.00000000  4.00000000
Ag  28.00000000  26.00000000  6.00000000
Ag  30.00000000  24.00000000  6.00000000
Ag  32.00000000  24.00000000  4.00000000
Ag  34.00000000  26.00000000  4.00000000
Ag  32.00000000  26.00000000  6.00000000
Ag  34.00000000  24.00000000  6.00000000
Ag  36.00000000  24.00000000  4.00000000
Ag  38.00000000  26.00000000  4.00000000
Ag  36.00000000  26.00000000  6.00000000
Ag  38.00000000  24.00000000  6.00000000
Ag  0.00000000  28.00000000  4.00000000
Ag  2.00000000  30.00000000  4.00000000
Ag  0.00000000  30.00000000  6.00000000
Ag  2.00000000  28.00000000  6.00000000
Ag  4.00000000  28.00000000  4.00000000
Ag  6.00000000  30.00000000  4.00000000
Ag  4.00000000  30.00000000  6.00000000
Ag  6.00000000  28.00000000  6.00000000
Ag  8.00000000  28.00000000  4.00000000
Ag  10.00000000  30.00000000  4.00000000
Ag  8.00000000  30.00000000  6.00000000
Ag  10.00000000  28.00000000  6.00000000
Ag  12.00000000  28.00000000  4.00000000
Ag  14.00000000  30.00000000  4.00000000
Ag  12.00000000  30.00000000  6.00000000
Ag  14.00000000  28.00000000  6.00000000
Ag  16.00000000  28.00000000  4.00000000
Ag  18.00000000  30.00000000  4.00000000
Ag  16.00000000  30.00000000  6.00000000
Ag  18.00000000  28.00000000  6.00000000
Ag  20.00000000  28.00000000  4.00000000
Ag  22.00000000  30.00000000  4.00000000
Ag  20.00000000  30.00000000  6.00000000
Ag  22.00000000  28.00000000  6.00000000
Ag  24.00000000  28.00000000  4.00000000
Ag  26.00000000  30.00000000  4.00000000
Ag  24.00000000  30.00000000  6.00000000
Ag  26.00000000  28.00000000  6.00000000
Ag  28.00000000  28.00000000  4.00000000
Ag  30.00000000  30.00000000  4.00000000
Ag  28.00000000  30.00000000  6.00000000
Ag  30.00000000  28.00000000  6.00000000
Ag  32.00000000  28.00000000  4.00000000
Ag  34.00000000  30.00000000  4.00000000
Ag  32.00000000  30.00000000  6.00000000
Ag  34.00000000  28.00000000  6.00000000
Ag  36.00000000  28.00000000  4.00000000
Ag  38.00000000  30.00000000  4.00000000
Ag  36.00000000  30.00000000  6.00000000
Ag  38.00000000  28.00000000  6.00000000
Ag  0.00000000  32.00000000  4.00000000
Ag  2.00000000  34.00000000  4.00000000
Ag  0.00000000  34.00000000  6.00000000
Ag  2.00000000  32.00000000  6.00000000
Ag  4.00000000  32.00000000  4.00000000
Ag  6.00000000  34.00000000  4.00000000
Ag  4.00000000  34.00000000  6.00000000
Ag  6.00000000  32.00000000  6.00000000
Ag  8.00000000  32.00000000  4.00000000
Ag  10.00000000  34.00000000  4.00000000
Ag  8.00000000  34.00000000  6.00000000
Ag  10.00000000  32.00000000  6.00000000
Ag  12.00000000  32.00000000  4.00000000
Ag  14.00000000  34.00000000  4.00000000
Ag  12.00000000  34.00000000  6.00000000
Ag  14.00000000  32.00000000  6.00000000
Ag  16.00000000  32.00000000  4.00000000
Ag  18.00000000  34.00000000  4.00000000
Ag  16.00000000  34.00000000  6.00000000
Ag  18.00000000  32.00000000  6.00000000
Ag  20.00000000  32.00000000  4.00000000
Ag  22.00000000  34.00000000  4.00000000
Ag  20.00000000  34.00000000  6.00000000
Ag  22.00000000  32.00000000  6.00000000
Ag  24.00000000  32.00000000  4.00000000
Ag  26.00000000  34.00000000  4.00000000
Ag  24.00000000  34.00000000  6.00000000
Ag  26.00000000  32.00000000  6.00000000
Ag  28.00000000  32.00000000  4.00000000
Ag  30.00000000  34.00000000  4.00000000
Ag  28.00000000  34.00000000  6.00000000
Ag  30.00000000  32.00000000  6.00000000
Ag  32.00000000  32.00000000  4.00000000
Ag  34.00000000  34.00000000  4.00000000
Ag  32.00000000  34.00000000  6.00000000
Ag  34.00000000  32.00000000  6.00000000
Ag  36.00000000  32.00000000  4.00000000
Ag  38.00000000  34.00000000  4.00000000
Ag  36.00000000  34.00000000  6.00000000
Ag  38.00000000  32.00000000  6.00000000
Ag  0.00000000  36.00000000  4.00000000
Ag  2.00000000  38.00000000  4.00000000
Ag  0.00000000  38.00000000  6.00000000
Ag  2.00000000  36.00000000  6.00000000
Ag  4.00000000  36.00000000  4.00000000
Ag  6.00000000  38.00000000  4.00000000
Ag  4.00000000  38.00000000  6.00000000
Ag  6.00000000  36.00000000  6.00000000
Ag  8.00000000  36.00000000  4.00000000
Ag  10.00000000  38.00000000  4.00000000
Ag  8.00000000  38.00000000  6.00000000
Ag  10.00000000  36.00000000  6.00000000
Ag  12.00000000  36.00000000  4.00000000
Ag  14.00000000  38.00000000  4.00000000
Ag  12.00000000  38.00000000  6.00000000
Ag  14.00000000  36.00000000  6.00000000
Ag  16.00000000  36.00000000  4.00000000
Ag  18.00000000  38.00000000  4.00000000
Ag  16.00000000  38.00000000  6.00000000
Ag  18.00000000  36.00000000  6.00000000
Ag  20.00000000  36.00000000  4.00000000
Ag  22.00000000  38.00000000  4.00000000
Ag  20.00000000  38.00000000  6.00000000
Ag  22.00000000  36.00000000  6.00000000
Ag  24.00000000  36.00000000  4.00000000
Ag  26.00000000  38.00000000  4.00000000
Ag  24.00000000  38.00000000  6.00000000
Ag  26.00000000  36.00000000  6.00000000
Ag  28.00000000  36.00000000  4.00000000
Ag  30.00000000  38.00000000  4.00000000
Ag  28.00000000  38.00000000  6.00000000
Ag  30.00000000  36.00000000  6.00000000
Ag  32.00000000  36.00000000  4.00000000
Ag  34.00000000  38.00000000  4.00000000
Ag  32.00000000  38.00000000  6.00000000
Ag  34.00000000  36.00000000  6.00000000
Ag  36.00000000  36.00000000  4.00000000
Ag  38.00000000  38.00000000  4.00000000
Ag  36.00000000  38.00000000  6.00000000
Ag  38.00000000  36.00000000  6.00000000
Ag  0.00000000  0.00000000  8.00000000
Ag  2.00000000  2.00000000  8.00000000
Ag  0.00000000  2.00000000  10.00000000
Ag  2.00000000  0.00000000  10.00000000
Ag  4.00000000  0.00000000  8.00000000
Ag  6.00000000  2.00000000  8.00000000
Ag  4.00000000  2.00000000  10.00000000
Ag  6.00000000  0.00000000  10.00000000
Ag  8.00000000  0.00000000  8.00000000
Ag  10.00000000  2.00000000  8.00000000
Ag  8.00000000  2.00000000  10.00000000
Ag  10.00000000  0.00000000  10.00000000
Ag  12.00000000  0.00000000  8.00000000
Ag  14.00000000  2.00000000  8.00000000
Ag  12.00000000  2.00000000  10.00000000
Ag  14.00000000  0.00000000  10.00000000
Ag  16.00000000  0.00000000  8.00000000
Ag  18.00000000  2.00000000  8.00000000
Ag  16.00000000  2.00000000  10.00000000
Ag  18.00000000  0.00000000  10.00000000
Ag  20.00000000  0.00000000  8.00000000
Ag  22.00000000  2.00000000  8.00000000
Ag  20.00000000  2.00000000  10.00000000
Ag  22.00000000  0.00000000  10.00000000
Ag  24.00000000  0.00000000  8.00000000
Ag  26.00000000  2.00000000  8.00000000
Ag  24.00000000  2.00000000  10.00000000
Ag  26.00000000  0.00000000  10.00000000
Ag  28.00000000  0.00000000  8.00000000
Ag  30.00000000  2.00000000  8.00000000
Ag  28.00000000  2.00000000  10.00000000
Ag  30.00000000  0.00000000  10.00000000
Ag  32.00000000  0.00000000  8.00000000
Ag  34.00000000  2.00000000  8.00000000
Ag  32.00000000  2.00000000  10.00000000
Ag  34.00000000  0.00000000  10.00000000
Ag  36.00000000  0.00000000  8.00000000
Ag  38.00000000  2.00000000  8.00000000
Ag  36.00000000  2.00000000  10.00000000
Ag  38.00000000  0.00000000  10.00000000
Ag  0.00000000  4.00000000  8.00000000
Ag  2.00000000  6.00000000  8.00000000
Ag  0.00000000  6.00000000  10.00000000
Ag  2.00000000  4.00000000  10.00000000
Ag  4.00000000  4.00000000  8.00000000
Ag  6.00000000  6.00000000  8.00000000
Ag  4.00000000  6.00000000  10.00000000
Ag  6.00000000  4.00000000  10.00000000
Ag  8.00000000  4.00000000  8.00000000
Ag  10.00000000  6.00000000  8.00000000
Ag  8.00000000  6.00000000  10.00000000
Ag  10.00000000  4.00000000  10.00000000
Ag  12.00000000  4.00000000  8.00000000
Ag  14.00000000  6.00000000  8.00000000
Ag  12.00000000  6.00000000  10.00000000
Ag  14.00000000  4.00000000  10.00000000
Ag  16.00000000  4.00000000  8.00000000
Ag  18.00000000  6.00000000  8.00000000
Ag  16.00000000  6.00000000  10.00000000
Ag  18.00000000  4.00000000  10.00000000
Ag  20.00000000  4.00000000  8.00000000
Ag  22.00000000  6.00000000  8.00000000
Ag  20.00000000  6.00000000  10.00000000
Ag  22.00000000  4.00000000  10.00000000
Ag  24.00000000  4.00000000  8.00000000
Ag  26.00000000  6.00000000  8.00000000
Ag  24.00000000  6.00000000  10.00000000
Ag  26.00000000  4.00000000  10.00000000
Ag  28.00000000  4.00000000  8.00000000
Ag  30.00000000  6.00000000  8.00000000
Ag  28.00000000  6.00000000  10.00000000
Ag  30.00000000  4.00000000  10.00000000
Ag  32.00000000  4.00000000  8.00000000
Ag  34.00000000  6.00000000  8.00000000
Ag  32.00000000  6.00000000  10.00000000
Ag  34.00000000  4.00000000  10.00000000
Ag  36.00000000  4.00000000  8.00000000
Ag  38.00000000  6.00000000  8.00000000
Ag  36.00000000  6.00000000  10.00000000
Ag  38.00000000  4.00000000  10.00000000
Ag  0.00000000  8.00000000  8.00000000
Ag  2.00000000  10.00000000  8.00000000
Ag  0.00000000  10.00000000  10.00000000
Ag  2.00000000  8.00000000  10.00000000
Ag  4.00000000  8.00000000  8.00000000
Ag  6.00000000  10.00000000  8.00000000
Ag  4.00000000  10.00000000  10.00000000
Ag  6.00000000  8.00000000  10.00000000
Ag  8.00000000  8.00000000  8.00000000
Ag  10.00000000  10.00000000  8.00000000
Ag  8.00000000  10.00000000  10.00000000
Ag  10.00000000  8.00000000  10.00000000
Ag  12.00000000  8.00000000  8.00000000
Ag  14.00000000  10.00000000  8.00000000
Ag  12.00000000  10.00000000  10.00000000
Ag  14.00000000  8.00000000  10.00000000
Ag  16.00000000  8.00000000  8.00000000
Ag  18.00000000  10.00000000  8.00000000
Ag  16.00000000  10.00000000  10.00000000
Ag  18.00000000  8.00000000  10.00000000
Ag  20.00000000  8.00000000  8.00000000
Ag  22.00000000  10.00000000  8.00000000
Ag  20.00000000  10.00000000  10.00000000
Ag  22.00000000  8.00000000  10.00000000
Ag  24.00000000  8.00000000  8.00000000
Ag  26.00000000  10.00000000  8.00000000
Ag  24.00000000  10.00000000  10.00000000
Ag  26.00000000  8.00000000  10.00000000
Ag  28.00000000  8.00000000  8.00000000
Ag  30.00000000  10.00000000  8.00000000
Ag  28.00000000  10.00000000  10.00000000
Ag  30.00000000  8.00000000  10.00000000
Ag  32.00000000  8.00000000  8.00000000
Ag  34.00000000  10.00000000  8.00000000
Ag  32.00000000  10.00000000  10.00000000
Ag  34.00000000  8.00000000  10.00000000
Ag  36.00000000  8.00000000  8.00000000
Ag  38.00000000  10.00000000  8.00000000
Ag  36.00000000  10.00000000  10.00000000
Ag  38.00000000  8.00000000  10.00000000
Ag  0.00000000  12.00000000  8.00000000
Ag  2.00000000  14.00000000  8.00000000
Ag  0.00000000  14.00000000  10.00000000
Ag  2.00000000  12.00000000  10.00000000
Ag  4.00000000  12.00000000  8.00000000
Ag  6.00000000  14.00000000  8.00000000
Ag  4.00000000  14.00000000  10.00000000
Ag  6.00000000  12.00000000  10.00000000
Ag  8.00000000  12.00000000  8.00000000
Ag  10.00000000  14.00000000  8.00000000
Ag  8.00000000  14.00000000  10.00000000
Ag  10.00000000  12.00000000  10.00000000
Ag  12.00000000  12.00000000  8.00000000
Ag  14.00000000  14.00000000  8.00000000
Ag  12.00000000  14.00000000  10.00000000
Ag  14.00000000  12.00000000  10.00000000
Ag  16.00000000  12.00000000  8.00000000
Ag  18.00000000  14.00000000  8.00000000
Ag  16.00000000  14.00000000  10.00000000
Ag  18.00000000  12.00000000  10.00000000
Ag  20.00000000  12.00000000  8.00000000
Ag  22.00000000  14.00000000  8.00000000
Ag  20.00000000  14.00000000  10.00000000
Ag  22.00000000  12.00000000  10.00000000
Ag  24.00000000  12.00000000  8.00000000
Ag  26.00000000  14.00000000  8.00000000
Ag  24.00000000  14.00000000  10.00000000
Ag  26.00000000  12.00000000  10.00000000
Ag  28.00000000  12.00000000  8.00000000
Ag  30.00000000  14.00000000  8.00000000
Ag  28.00000000  14.00000000  10.00000000
Ag  30.00000000  12.00000000  10.00000000
Ag  32.00000000  12.00000000  8.00000000
Ag  34.00000000  14.00000000  8.00000000
Ag  32.00000000  14.00000000  10.00000000
Ag  34.00000000  12.00000000  10.00000000
Ag  36.00000000  12.00000000  8.00000000
Ag  38.00000000  14.00000000  8.00000000
Ag  36.00000000  14.00000000  10.00000000
Ag  38.00000000  12.00000000  10.00000000
Ag  0.00000000  16.00000000  8.00000000
Ag  2.00000000  18.00000000  8.00000000
Ag  0.00000000  18.00000000  10.00000000
Ag  2.00000000  16.00000000  10.00000000
Ag  4.00000000  16.00000000  8.00000000
Ag  6.00000000  18.00000000  8.00000000
Ag  4.00000000  18.00000000  10.00000000
Ag  6.00000000  16.00000000  10.00000000
Ag  8.00000000  16.00000000  8.00000000
Ag  10.00000000  18.00000000  8.00000000
Ag  8.00000000  18.00000000  10.00000000
Ag  10.00000000  16.00000000  10.00000000
Ag  12.00000000  16.00000000  8.00000000
Ag  14.00000000  18.00000000  8.00000000
Ag  12.00000000  18.00000000  10.00000000
Ag  14.00000000  16.00000000  10.00000000
Ag  16.00000000  16.00000000  8.00000000
Ag  18.00000000  18.00000000  8.00000000
Ag  16.00000000  18.00000000  10.00000000
Ag  18.00000000  16.00000000  10.00000000
Ag  20.00000000  16.00000000  8.00000000
Ag  22.00000000  18.00000000  8.00000000
Ag  20.00000000  18.00000000  10.00000000
Ag  22.00000000  16.00000000  10.00000000
Ag  24.00000000  16.00000000  8.00000000
Ag  26.00000000  18.00000000  8.00000000
Ag  24.00000000  18.00000000  10.00000000
Ag  26.00000000  16.00000000  10.00000000
Ag  28.00000000  16.00000000  8.00000000
Ag  30.00000000  18.00000000  8.00000000
Ag  28.00000000  18.00000000  10.00000000
Ag  30.00000000  16.00000000  10.00000000
Ag  32.00000000  16.00000000  8.00000000
Ag  34.00000000  18.00000000  8.00000000
Ag  32.00000000  18.00000000  10.00000000
Ag  34.00000000  16.00000000  10.00000000
Ag  36.00000000  16.00000000  8.00000000
Ag  38.00000000  18.00000000  8.00000000
Ag  36.00000000  18.00000000  10.00000000
Ag  38.00000000  16.00000000  10.00000000
Ag  0.00000000  20.00000000  8.00000000
Ag  2.00000000  22.00000000  8.00000000
Ag  0.00000000  22.00000000  10.00000000
Ag  2.00000000  20.00000000  10.00000000
Ag  4.00000000  20.00000000  8.00000000
Ag  6.00000000  22.00000000  8.00000000
Ag  4.00000000  22.00000000  10.00000000
Ag  6.00000000  20.00000000  10.00000000
Ag  8.00000000  20.00000000  8.00000000
Ag  10.00000000  22.00000000  8.00000000
Ag  8.00000000  22.00000000  10.00000000
Ag  10.00000000  20.00000000  10.00000000
Ag  12.00000000  20.00000000  8.00000000
Ag  14.00000000  22.00000000  8.00000000
Ag  12.00000000  22.00000000  10.00000000
Ag  14.00000000  20.00000000  10.00000000
Ag  16.00000000  20.00000000  8.00000000
Ag  18.00000000  22.00000000  8.00000000
Ag  16.00000000  22.00000000  10.00000000
Ag  18.00000000  20.00000000  10.00000000
Ag  20.00000000  20.00000000  8.00000000
Ag  22.00000000  22.00000000  8.00000000
Ag  20.00000000  22.00000000  10.00000000
Ag  22.00000000  20.00000000  10.00000000
Ag  24.00000000  20.00000000  8.00000000
Ag  26.00000000  22.00000000  8.00000000
Ag  24.00000000  22.00000000  10.00000000
Ag  26.00000000  20.00000000  10.00000000
Ag  28.00000000  20.00000000  8.00000000
Ag  30.00000000  22.00000000  8.00000000
Ag  28.00000000  22.00000000  10.00000000
Ag  30.00000000  20.00000000  10.00000000
Ag  32.00000000  20.00000000  8.00000000
Ag  34.00000000  22.00000000  8.00000000
Ag  32.00000000  22.00000000  10.00000000
Ag  34.00000000  20.00000000  10.00000000
Ag  36.00000000  20.00000000  8.00000000
Ag  38.00000000  22.00000000  8.00000000
Ag  36.00000000  22.00000000  10.00000000
Ag  38.00000000  20.00000000  10.00000000
Ag  0.00000000  24.00000000  8.00000000
Ag  2.00000000  26.00000000  8.00000000
Ag  0.00000000  26.00000000  10.00000000
Ag  2.00000000  24.00000000  10.00000000
Ag  4.00000000  24.00000000  8.00000000
Ag  6.00000000  26.00000000  8.00000000
Ag  4.00000000  26.00000000  10.00000000
Ag  6.00000000  24.00000000  10.00000000
Ag  8.00000000  24.00000000  8.00000000
Ag  10.00000000  26.00000000  8.00000000
Ag  8.00000000  26.00000000  10.00000000
Ag  10.00000000  24.00000000  10.00000000
Ag  12.00000000  24.00000000  8.00000000
Ag  14.00000000  26.00000000  8.00000000
Ag  12.00000000  26.00000000  10.00000000
Ag  14.00000000  24.00000000  10.00000000
Ag  16.00000000  24.00000000  8.00000000
Ag  18.00000000  26.00000000  8.00000000
Ag  16.00000000  26.00000000  10.00000000
Ag  18.00000000  24.00000000  10.00000000
Ag  20.00000000  24.00000000  8.00000000
Ag  22.00000000  26.00000000  8.00000000
Ag  20.00000000  26.00000000  10.00000000
Ag  22.00000000  24.00000000  10.00000000
Ag  24.00000000  24.00000000  8.00000000
Ag  26.00000000  26.00000000  8.00000000
Ag  24.00000000  26.00000000  10.00000000
Ag  26.00000000  24.00000000  10.00000000
Ag  28.00000000  24.00000000  8.00000000
Ag  30.00000000  26.00000000  8.00000000
Ag  28.00000000  26.00000000  10.00000000
Ag  30.00000000  24.00000000  10.00000000
Ag  32.00000000  24.00000000  8.00000000
Ag  34.00000000  26.00000000  8.00000000
Ag  32.00000000  26.00000000  10.00000000
Ag  34.00000000  24.00000000  10.00000000
Ag  36.00000000  24.00000000  8.00000000
Ag  38.00000000  26.00000000  8.00000000
Ag  36.00000000  26.00000000  10.00000000
Ag  38.00000000  24.00000000  10.00000000
Ag  0.00000000  28.00000000  8.00000000
Ag  2.00000000  30.00000000  8.00000000
Ag  0.00000000  30.00000000  10.00000000
Ag  2.00000000  28.00000000  10.00000000
Ag  4.00000000  28.00000000  8.00000000
Ag  6.00000000  30.00000000  8.00000000
Ag  4.00000000  30.00000000  10.00000000
Ag  6.00000000  28.00000000  10.00000000
Ag  8.00000000  28.00000000  8.00000000
Ag  10.00000000  30.00000000  8.00000000
Ag  8.00000000  30.00000000  10.00000000
Ag  10.00000000  28.00000000  10.00000000
Ag  12.00000000  28.00000000  8.00000000
Ag  14.00000000  30.00000000  8.00000000
Ag  12.00000000  30.00000000  10.00000000
Ag  14.00000000  28.00000000  10.00000000
Ag  16.00000000  28.00000000  8.00000000
Ag  18.00000000  30.00000000  8.00000000
Ag  16.00000000  30.00000000  10.00000000
Ag  18.00000000  28.00000000  10.00000000
Ag  20.00000000  28.00000000  8.00000000
Ag  22.00000000  30.00000000  8.00000000
Ag  20.00000000  30.00000000  10.00000000
Ag  22.00000000  28.00000000  10.00000000
Ag  24.00000000  28.00000000  8.00000000
Ag  26.00000000  30.00000000  8.00000000
Ag  24.00000000  30.00000000  10.00000000
Ag  26.00000000  28.00000000  10.00000000
Ag  28.00000000  28.00000000  8.00000000
Ag  30.00000000  30.00000000  8.00000000
Ag  28.00000000  30.00000000  10.00000000
Ag  30.00000000  28.00000000  10.00000000
Ag  32.00000000  28.00000000  8.00000000
Ag  34.00000000  30.00000000  8.00000000
Ag  32.00000000  30.00000000  10.00000000
Ag  34.00000000  28.00000000  10.00000000
Ag  36.00000000  28.00000000  8.00000000
Ag  38.00000000  30.00000000  8.00000000
Ag  36.00000000  30.00000000  10.00000000
Ag  38.00000000  28.00000000  10.00000000
Ag  0.00000000  32.00000000  8.00000000
Ag  2.00000000  34.00000000  8.00000000
Ag  0.00000000  34.00000000  10.00000000
Ag  2.00000000  32.00000000  10.00000000
Ag  4.00000000  32.00000000  8.00000000
Ag  6.00000000  34.00000000  8.00000000
Ag  4.00000000  34.00000000  10.00000000
Ag  6.00000000  32.00000000  10.00000000
Ag  8.00000000  32.00000000  8.00000000
Ag  10.00000000  34.00000000  8.00000000
Ag  8.00000000  34.00000000  10.00000000
Ag  10.00000000  32.00000000  10.00000000
Ag  12.00000000  32.00000000  8.00000000
Ag  14.00000000  34.00000000  8.00000000
Ag  12.00000000  34.00000000  10.00000000
Ag  14.00000000  32.00000000  10.00000000
Ag  16.00000000  32.00000000  8.00000000
Ag  18.00000000  34.00000000  8.00000000
Ag  16.00000000  34.00000000  10.00000000
Ag  18.00000000  32.00000000  10.00000000
Ag  20.00000000  32.00000000  8.00000000
Ag  22.00000000  34.00000000  8.00000000
Ag  20.00000000  34.00000000  10.00000000
Ag  22.00000000  32.00000000  10.00000000
Ag  24.00000000  32.00000000  8.00000000
Ag  26.00000000  34.00000000  8.00000000
Ag  24.00000000  34.00000000  10.00000000
Ag  26.00000000  32.00000000  10.00000000
Ag  28.00000000  32.00000000  8.00000000
Ag  30.00000000  34.00000000  8.00000000
Ag  28.00000000  34.00000000  10.00000000
Ag  30.00000000  32.00000000  10.00000000
Ag  32.00000000  32.00000000  8.00000000
Ag  34.00000000  34.00000000  8.00000000
Ag  32.00000000  34.00000000  10.00000000
Ag  34.00000000  32.00000000  10.00000000
Ag  36.00000000  32.00000000  8.00000000
Ag  38.00000000  34.00000000  8.00000000
Ag  36.00000000  34.00000000  10.00000000
Ag  38.00000000  32.00000000  10.00000000
Ag  0.00000000  36.00000000  8.00000000
Ag  2.00000000  38.00000000  8.00000000
Ag  0.00000000  38.00000000  10.00000000
Ag  2.00000000  36.00000000  10.00000000
Ag  4.00000000  36.00000000  8.00000000
Ag  6.00000000  38.00000000  8.00000000
Ag  4.00000000  38.00000000  10.00000000
Ag  6.00000000  36.00000000  10.00000000
Ag  8.00000000  36.00000000  8.00000000
Ag  10.00000000  38.00000000  8.00000000
Ag  8.00000000  38.00000000  10.00000000
Ag  10.00000000  36.00000000  10.00000000
Ag  12.00000000  36.00000000  8.00000000
Ag  14.00000000  38.00000000  8.00000000
Ag  12.00000000  38.00000000  10.00000000
Ag  14.00000000  36.00000000  10.00000000
Ag  16.00000000  36.00000000  8.00000000
Ag  18.00000000  38.00000000  8.00000000
Ag  16.00000000  38.00000000  10.00000000
Ag  18.00000000  36.00000000  10.00000000
Ag  20.00000000  36.00000000  8.00000000
Ag  22.00000000  38.00000000  8.00000000
Ag  20.00000000  38.00000000  10.00000000
Ag  22.00000000  36.00000000  10.00000000
Ag  24.00000000  36.00000000  8.00000000
Ag  26.00000000  38.00000000  8.00000000
Ag  24.00000000  38.00000000  10.00000000
Ag  26.00000000  36.00000000  10.00000000
Ag  28.00000000  36.00000000  8.00000000
Ag  30.00000000  38.00000000  8.00000000
Ag  28.00000000  38.00000000  10.00000000
Ag  30.00000000  36.00000000  10.00000000
Ag  32.00000000  36.00000000  8.00000000
Ag  34.00000000  38.00000000  8.00000000
Ag  32.00000000  38.00000000  10.00000000
Ag  34.00000000  36.00000000  10.00000000
Ag  36.00000000  36.00000000  8.00000000
Ag  38.00000000  38.00000000  8.00000000
Ag  36.00000000  38.00000000  10.00000000
Ag  38.00000000  36.00000000  10.00000000
Ag  0.00000000  0.00000000  12.00000000
Ag  2.00000000  2.00000000  12.00000000
Ag  0.00000000  2.00000000  14.00000000
Ag  2.00000000  0.00000000  14.00000000
Ag  4.00000000  0.00000000  12.00000000
Ag  6.00000000  2.00000000  12.00000000
Ag  4.00000000  2.00000000  14.00000000
Ag  6.00000000  0.00000000  14.00000000
Ag  8.00000000  0.00000000  12.00000000
Ag  10.00000000  2.00000000  12.00000000
Ag  8.00000000  2.00000000  14.00000000
Ag  10.00000000  0.00000000  14.00000000
Ag  12.00000000  0.00000000  12.00000000
Ag  14.00000000  2.00000000  12.00000000
Ag  12.00000000  2.00000000  14.00000000
Ag  14.00000000  0.00000000  14.00000000
Ag  16.00000000  0.00000000  12.00000000
Ag  18.00000000  2.00000000  12.00000000
Ag  16.00000000  2.00000000  14.00000000
Ag  18.00000000  0.00000000  14.00000000
Ag  20.00000000  0.00000000  12.00000000
Ag  22.00000000  2.00000000  12.00000000
Ag  20.00000000  2.00000000  14.00000000
Ag  22.00000000  0.00000000  14.00000000
Ag  24.00000000  0.00000000  12.00000000
Ag  26.00000000  2.00000000  12.00000000
Ag  24.00000000  2.00000000  14.00000000
Ag  26.00000000  0.00000000  14.00000000
Ag  28.00000000  0.00000000  12.00000000
Ag  30.00000000  2.00000000  12.00000000
Ag  28.00000000  2.00000000  14.00000000
Ag  30.00000000  0.00000000  14.00000000
Ag  32.00000000  0.00000000  12.00000000
Ag  34.00000000  2.00000000  12.00000000
Ag  32.00000000  2.00000000  14.00000000
Ag  34.00000000  0.00000000  14.00000000
Ag  36.00000000  0.00000000  12.00000000
Ag  38.00000000  2.00000000  12.00000000
Ag  36.00000000  2.00000000  14.00000000
Ag  38.00000000  0.00000000  14.00000000
Ag  0.00000000  4.00000000  12.00000000
Ag  2.00000000  6.00000000  12.00000000
Ag  0.00000000  6.00000000  14.00000000
Ag  2.00000000  4.00000000  14.00000000
Ag  4.00000000  4.00000000  12.00000000
Ag  6.00000000  6.00000000  12.00000000
Ag  4.00000000  6.00000000  14.00000000
Ag  6.00000000  4.00000000  14.00000000
Ag  8.00000000  4.00000000  12.00000000
Ag  10.00000000  6.00000000  12.00000000
Ag  8.00000000  6.00000000  14.00000000
Ag  10.00000000  4.00000000  14.00000000
Ag  12.00000000  4.00000000  12.00000000
Ag  14.00000000  6.00000000  12.00000000
Ag  12.00000000  6.00000000  14.00000000
Ag  14.00000000  4.00000000  14.00000000
Ag  16.00000000  4.00000000  12.00000000
Ag  18.00000000  6.00000000  12.00000000
Ag  16.00000000  6.00000000  14.00000000
Ag  18.00000000  4.00000000  14.00000000
Ag  20.00000000  4.00000000  12.00000000
Ag  22.00000000  6.00000000  12.00000000
Ag  20.00000000  6.00000000  14.00000000
Ag  22.00000000  4.00000000  14.00000000
Ag  24.00000000  4.00000000  12.00000000
Ag  26.00000000  6.00000000  12.00000000
Ag  24.00000000  6.00000000  14.00000000
Ag  26.00000000  4.00000000  14.00000000
Ag  28.00000000  4.00000000  12.00000000
Ag  30.00000000  6.00000000  12.00000000
Ag  28.00000000  6.00000000  14.00000000
Ag  30.00000000  4.00000000  14.00000000
Ag  32.00000000  4.00000000  12.00000000
Ag  34.00000000  6.00000000  12.00000000
Ag  32.00000000  6.00000000  14.00000000
Ag  34.00000000  4.00000000  14.00000000
Ag  36.00000000  4.00000000  12.00000000
Ag  38.00000000  6.00000000  12.00000000
Ag  36.00000000  6.00000000  14.00000000
Ag  38.00000000  4.00000000  14.00000000
Ag  0.00000000  8.00000000  12.00000000
Ag  2.00000000  10.00000000  12.00000000
Ag  0.00000000  10.00000000  14.00000000
Ag  2.00000000  8.00000000  14.00000000
Ag  4.00000000  8.00000000  12.00000000
Ag  6.00000000  10.00000000  12.00000000
Ag  4.00000000  10.00000000  14.00000000
Ag  6.00000000  8.00000000  14.00000000
Ag  8.00000000  8.00000000  12.00000000
Ag  10.00000000  10.00000000  12.00000000
Ag  8.00000000  10.00000000  14.00000000
Ag  10.00000000  8.00000000  14.00000000
Ag  12.00000000  8.00000000  12.00000000
Ag  14.00000000  10.00000000  12.00000000
Ag  12.00000000  10.00000000  14.00000000
Ag  14.00000000  8.00000000  14.00000000
Ag  16.00000000  8.00000000  12.00000000
Ag  18.00000000  10.00000000  12.00000000
Ag  16.00000000  10.00000000  14.00000000
Ag  18.00000000  8.00000000  14.00000000
Ag  20.00000000  8.00000000  12.00000000
Ag  22.00000000  10.00000000  12.00000000
Ag  20.00000000  10.00000000  14.00000000
Ag  22.00000000  8.00000000  14.00000000
Ag  24.00000000  8.00000000  12.00000000
Ag  26.00000000  10.00000000  12.00000000
Ag  24.00000000  10.00000000  14.00000000
Ag  26.00000000  8.00000000  14.00000000
Ag  28.00000000  8.00000000  12.00000000
Ag  30.00000000  10.00000000  12.00000000
Ag  28.00000000  10.00000000  14.00000000
Ag  30.00000000  8.00000000  14.00000000
Ag  32.00000000  8.00000000  12.00000000
Ag  34.00000000  10.00000000  12.00000000
Ag  32.00000000  10.00000000  14.00000000
Ag  34.00000000  8.00000000  14.00000000
Ag  36.00000000  8.00000000  12.00000000
Ag  38.00000000  10.00000000  12.00000000
Ag  36.00000000  10.00000000  14.00000000
Ag  38.00000000  8.00000000  14.00000000
Ag  0.00000000  12.00000000  12.00000000
Ag  2.00000000  14.00000000  12.00000000
Ag  0.00000000  14.00000000  14.00000000
Ag  2.00000000  12.00000000  14.00000000
Ag  4.00000000  12.00000000  12.00000000
Ag  6.00000000  14.00000000  12.00000000
Ag  4.00000000  14.00000000  14.00000000
Ag  6.00000000  12.00000000  14.00000000
Ag  8.00000000  12.00000000  12.00000000
Ag  10.00000000  14.00000000  12.00000000
Ag  8.00000000  14.00000000  14.00000000
Ag  10.00000000  12.00000000  14.00000000
Ag  12.00000000  12.00000000  12.00000000
Ag  14.00000000  14.00000000  12.00000000
Ag  12.00000000  14.00000000  14.00000000
Ag  14.00000000  12.00000000  14.00000000
Ag  16.00000000  12.00000000  12.00000000
Ag  18.00000000  14.00000000  12.00000000
Ag  16.00000000  14.00000000  14.00000000
Ag  18.00000000  12.00000000  14.00000000
Ag  20.00000000  12.00000000  12.00000000
Ag  22.00000000  14.00000000  12.00000000
Ag  20.00000000  14.00000000  14.00000000
Ag  22.00000000  12.00000000  14.00000000
Ag  24.00000000  12.00000000  12.00000000
Ag  26.00000000  14.00000000  12.00000000
Ag  24.00000000  14.00000000  14.00000000
Ag  26.00000000  12.00000000  14.00000000
Ag  28.00000000  12.00000000  12.00000000
Ag  30.00000000  14.00000000  12.00000000
Ag  28.00000000  14.00000000  14.00000000
Ag  30.00000000  12.00000000  14.00000000
Ag  32.00000000  12.00000000  12.00000000
Ag  34.00000000  14.00000000  12.00000000
Ag  32.00000000  14.00000000  14.00000000
Ag  34.00000000  12.00000000  14.00000000
Ag  36.00000000  12.00000000  12.00000000
Ag  38.00000000  14.00000000  12.00000000
Ag  36.00000000  14.00000000  14.00000000
Ag  38.00000000  12.00000000  14.00000000
Ag  0.00000000  16.00000000  12.00000000
Ag  2.00000000  18.00000000  12.00000000
Ag  0.00000000  18.00000000  14.00000000
Ag  2.00000000  16.00000000  14.00000000
Ag  4.00000000  16.00000000  12.00000000
Ag  6.00000000  18.00000000  12.00000000
Ag  4.00000000  18.00000000  14.00000000
Ag  6.00000000  16.00000000  14.00000000
Ag  8.00000000  16.00000000  12.00000000
Ag  10.00000000  18.00000000  12.00000000
Ag  8.00000000  18.00000000  14.00000000
Ag  10.00000000  16.00000000  14.00000000
Ag  12.00000000  16.00000000  12.00000000
Ag  14.00000000  18.00000000  12.00000000
Ag  12.00000000  18.00000000  14.00000000
Ag  14.00000000  16.00000000  14.00000000
Ag  16.00000000  16.00000000  12.00000000
Ag  18.00000000  18.00000000  12.00000000
Ag  16.00000000  18.00000000  14.00000000
Ag  18.00000000  16.00000000  14.00000000
Ag  20.00000000  16.00000000  12.00000000
Ag  22.00000000  18.00000000  12.00000000
Ag  20.00000000  18.00000000  14.00000000
Ag  22.00000000  16.00000000  14.00000000
Ag  24.00000000  16.00000000  12.00000000
Ag  26.00000000  18.00000000  12.00000000
Ag  24.00000000  18.00000000  14.00000000
Ag  26.00000000  16.00000000  14.00000000
Ag  28.00000000  16.00000000  12.00000000
Ag  30.00000000  18.00000000  12.00000000
Ag  28.00000000  18.00000000  14.00000000
Ag  30.00000000  16.00000000  14.00000000
Ag  32.00000000  16.00000000  12.00000000
Ag  34.00000000  18.00000000  12.00000000
Ag  32.00000000  18.00000000  14.00000000
Ag  34.00000000  16.00000000  14.00000000
Ag  36.00000000  16.00000000  12.00000000
Ag  38.00000000  18.00000000  12.00000000
Ag  36.00000000  18.00000000  14.00000000
Ag  38.00000000  16.00000000  14.00000000
Ag  0.00000000  20.00000000  12.00000000
Ag  2.00000000  22.00000000  12.00000000
Ag  0.00000000  22.00000000  14.00000000
Ag  2.00000000  20.00000000  14.00000000
Ag  4.00000000  20.00000000  12.00000000
Ag  6.00000000  22.00000000  12.00000000
Ag  4.00000000  22.00000000  14.00000000
Ag  6.00000000  20.00000000  14.00000000
Ag  8.00000000  20.00000000  12.00000000
Ag  10.00000000  22.00000000  12.00000000
Ag  8.00000000  22.00000000  14.00000000
Ag  10.00000000  20.00000000  14.00000000
Ag  12.00000000  20.00000000  12.00000000
Ag  14.00000000  22.00000000  12.00000000
Ag  12.00000000  22.00000000  14.00000000
Ag  14.00000000  20.00000000  14.00000000
Ag  16.00000000  20.00000000  12.00000000
Ag  18.00000000  22.00000000  12.00000000
Ag  16.00000000  22.00000000  14.00000000
Ag  18.00000000  20.00000000  14.00000000
Ag  20.00000000  20.00000000  12.00000000
Ag  22.00000000  22.00000000  12.00000000
Ag  20.00000000  22.00000000  14.00000000
Ag  22.00000000  20.00000000  14.00000000
Ag  24.00000000  20.00000000  12.00000000
Ag  26.00000000  22.00000000  12.00000000
Ag  24.00000000  22.00000000  14.00000000
Ag  26.00000000  20.00000000  14.00000000
Ag  28.00000000  20.00000000  12.00000000
Ag  30.00000000  22.00000000  12.00000000
Ag  28.00000000  22.00000000  14.00000000
Ag  30.00000000  20.00000000  14.00000000
Ag  32.00000000  20.00000000  12.00000000
Ag  34.00000000  22.00000000  12.00000000
Ag  32.00000000  22.00000000  14.00000000
Ag  34.00000000  20.00000000  14.00000000
Ag  36.00000000  20.00000000  12.00000000
Ag  38.00000000  22.00000000  12.00000000
Ag  36.00000000  22.00000000  14.00000000
Ag  38.00000000  20.00000000  14.00000000
Ag  0.00000000  24.00000000  12.00000000
Ag  2.00000000  26.00000000  12.00000000
Ag  0.00000000  26.00000000  14.00000000
Ag  2.00000000  24.00000000  14.00000000
Ag  4.00000000  24.00000000  12.00000000
Ag  6.00000000  26.00000000  12.00000000
Ag  4.00000000  26.00000000  14.00000000
Ag  6.00000000  24.00000000  14.00000000
Ag  8.00000000  24.00000000  12.00000000
Ag  10.00000000  26.00000000  12.00000000
Ag  8.00000000  26.00000000  14.00000000
Ag  10.00000000  24.00000000  14.00000000
Ag  12.00000000  24.00000000  12.00000000
Ag  14.00000000  26.00000000  12.00000000
Ag  12.00000000  26.00000000  14.00000000
Ag  14.00000000  24.00000000  14.00000000
Ag  16.00000000  24.00000000  12.00000000
Ag  18.00000000  26.00000000  12.00000000
Ag  16.00000000  26.00000000  14.00000000
Ag  18.00000000  24.00000000  14.00000000
Ag  20.00000000  24.00000000  12.00000000
Ag  22.00000000  26.00000000  12.00000000
Ag  20.00000000  26.00000000  14.00000000
Ag  22.00000000  24.00000000  14.00000000
Ag  24.00000000  24.00000000  12.00000000
Ag  26.00000000  26.00000000  12.00000000
Ag  24.00000000  26.00000000  14.00000000
Ag  26.00000000  24.00000000  14.00000000
Ag  28.00000000  24.00000000  12.00000000
Ag  30.00000000  26.00000000  12.00000000
Ag  28.00000000  26.00000000  14.00000000
Ag  30.00000000  24.00000000  14.00000000
Ag  32.00000000  24.00000000  12.00000000
Ag  34.00000000  26.00000000  12.00000000
Ag  32.00000000  26.00000000  14.00000000
Ag  34.00000000  24.00000000  14.00000000
Ag  36.00000000  24.00000000  12.00000000
Ag  38.00000000  26.00000000  12.00000000
Ag  36.00000000  26.00000000  14.00000000
Ag  38.00000000  24.00000000  14.00000000
Ag  0.00000000  28.00000000  12.00000000
Ag  2.00000000  30.00000000  12.00000000
Ag  0.00000000  30.00000000  14.00000000
Ag  2.00000000  28.00000000  14.00000000
Ag  4.00000000  28.00000000  12.00000000
Ag  6.00000000  30.00000000  12.00000000
Ag  4.00000000  30.00000000  14.00000000
Ag  6.00000000  28.00000000  14.00000000
Ag  8.00000000  28.00000000  12.00000000
Ag  10.00000000  30.00000000  12.00000000
Ag  8.00000000  30.00000000  14.00000000
Ag  10.00000000  28.00000000  14.00000000
Ag  12.00000000  28.00000000  12.00000000
Ag  14.00000000  30.00000000  12.00000000
Ag  12.00000000  30.00000000  14.00000000
Ag  14.00000000  28.00000000  14.00000000
Ag  16.00000000  28.00000000  12.00000000
Ag  18.00000000  30.00000000  12.00000000
Ag  16.00000000  30.00000000  14.00000000
Ag  18.00000000  28.00000000  14.00000000
Ag  20.00000000  28.00000000  12.00000000
Ag  22.00000000  30.00000000  12.00000000
Ag  20.00000000  30.00000000  14.00000000
Ag  22.00000000  28.00000000  14.00000000
Ag  24.00000000  28.00000000  12.00000000
Ag  26.00000000  30.00000000  12.00000000
Ag  24.00000000  30.00000000  14.00000000
Ag  26.00000000  28.00000000  14.00000000
Ag  28.00000000  28.00000000  12.00000000
Ag  30.00000000  30.00000000  12.00000000
Ag  28.00000000  30.00000000  14.00000000
Ag  30.00000000  28.00000000  14.00000000
Ag  32.00000000  28.00000000  12.00000000
Ag  34.00000000  30.00000000  12.00000000
Ag  32.00000000  30.00000000  14.00000000
Ag  34.00000000  28.00000000  14.00000000
Ag  36.00000000  28.00000000  12.00000000
Ag  38.00000000  30.00000000  12.00000000
Ag  36.00000000  30.00000000  14.00000000
Ag  38.00000000  28.00000000  14.00000000
Ag  0.00000000  32.00000000  12.00000000
Ag  2.00000000  34.00000000  12.00000000
Ag  0.00000000  34.00000000  14.00000000
Ag  2.00000000  32.00000000  14.00000000
Ag  4.00000000  32.00000000  12.00000000
Ag  6.00000000  34.00000000  12.00000000
Ag  4.00000000  34.00000000  14.00000000
Ag  6.00000000  32.00000000  14.00000000
Ag  8.00000000  32.00000000  12.00000000
Ag  10.00000000  34.00000000  12.00000000
Ag  8.00000000  34.00000000  14.00000000
Ag  10.00000000  32.00000000  14.00000000
Ag  12.00000000  32.00000000  12.00000000
Ag  14.00000000  34.00000000  12.00000000
Ag  12.00000000  34.00000000  14.00000000
Ag  14.00000000  32.00000000  14.00000000
Ag  16.00000000  32.00000000  12.00000000
Ag  18.00000000  34.00000000  12.00000000
Ag  16.00000000  34.00000000  14.00000000
Ag  18.00000000  32.00000000  14.00000000
Ag  20.00000000  32.00000000  12.00000000
Ag  22.00000000  34.00000000  12.00000000
Ag  20.00000000  34.00000000  14.00000000
Ag  22.00000000  32.00000000  14.00000000
Ag  24.00000000  32.00000000  12.00000000
Ag  26.00000000  34.00000000  12.00000000
Ag  24.00000000  34.00000000  14.00000000
Ag  26.00000000  32.00000000  14.00000000
Ag  28.00000000  32.00000000  12.00000000
Ag  30.00000000  34.00000000  12.00000000
Ag  28.00000000  34.00000000  14.00000000
Ag  30.00000000  32.00000000  14.00000000
Ag  32.00000000  32.00000000  12.00000000
Ag  34.00000000  34.00000000  12.00000000
Ag  32.00000000  34.00000000  14.00000000
Ag  34.00000000  32.00000000  14.00000000
Ag  36.00000000  32.00000000  12.00000000
Ag  38.00000000  34.00000000  12.00000000
Ag  36.00000000  34.00000000  14.00000000
Ag  38.00000000  32.00000000  14.00000000
Ag  0.00000000  36.00000000  12.00000000
Ag  2.00000000  38.00000000  12.00000000
Ag  0.00000000  38.00000000  14.00000000
Ag  2.00000000  36.00000000  14.00000000
Ag  4.00000000  36.00000000  12.00000000
Ag  6.00000000  38.00000000  12.00000000
Ag  4.00000000  38.00000000  14.00000000
Ag  6.00000000  36.00000000  14.00000000
Ag  8.00000000  36.00000000  12.00000000
Ag  10.00000000  38.00000000  12.00000000
Ag  8.00000000  38.00000000  14.00000000
Ag  10.00000000  36.00000000  14.00000000
Ag  12.00000000  36.00000000  12.00000000
Ag  14.00000000  38.00000000  12.00000000
Ag  12.00000000  38.00000000  14.00000000
Ag  14.00000000  36.00000000  14.00000000
Ag  16.00000000  36.00000000  12.00000000
Ag  18.00000000  38.00000000  12.00000000
Ag  16.00000000  38.00000000  14.00000000
Ag  18.00000000  36.00000000  14.00000000
Ag  20.00000000  36.00000000  12.00000000
Ag  22.00000000  38.00000000  12.00000000
Ag  20.00000000  38.00000000  14.00000000
Ag  22.00000000  36.00000000  14.00000000
Ag  24.00000000  36.00000000  12.00000000
Ag  26.00000000  38.00000000  12.00000000
Ag  24.00000000  38.00000000  14.00000000
Ag  26.00000000  36.00000000  14.00000000
Ag  28.00000000  36.00000000  12.00000000
Ag  30.00000000  38.00000000  12.00000000
Ag  28.00000000  38.00000000  14.00000000
Ag  30.00000000  36.00000000  14.00000000
Ag  32.00000000  36.00000000  12.00000000
Ag  34.00000000  38.00000000  12.00000000
Ag  32.00000000  38.00000000  14.00000000
Ag  34.00000000  36.00000000  14.00000000
Ag  36.00000000  36.00000000  12.00000000
Ag  38.00000000  38.00000000  12.00000000
Ag  36.00000000  38.00000000  14.00000000
Ag  38.00000000  36.00000000  14.00000000
Ag  0.00000000  0.00000000  16.00000000
Ag  2.00000000  2.00000000  16.00000000
Ag  0.00000000  2.00000000  18.00000000
Ag  2.00000000  0.00000000  18.00000000
Ag  4.00000000  0.00000000  16.00000000
Ag  6.00000000  2.00000000  16.00000000
Ag  4.00000000  2.00000000  18.00000000
Ag  6.00000000  0.00000000  18.00000000
Ag  8.00000000  0.00000000  16.00000000
Ag  10.00000000  2.00000000  16.00000000
Ag  8.00000000  2.00000000  18.00000000
Ag  10.00000000  0.00000000  18.00000000
Ag  12.00000000  0.00000000  16.00000000
Ag  14.00000000  2.00000000  16.00000000
Ag  12.00000000  2.00000000  18.00000000
Ag  14.00000000  0.00000000  18.00000000
Ag  16.00000000  0.00000000  16.00000000
Ag  18.00000000  2.00000000  16.00000000
Ag  16.00000000  2.00000000  18.00000000
Ag  18.00000000  0.00000000  18.00000000
Ag  20.00000000  0.00000000  16.00000000
Ag  22.00000000  2.00000000  16.00000000
Ag  20.00000000  2.00000000  18.00000000
Ag  22.00000000  0.00000000  18.00000000
Ag  24.00000000  0.00000000  16.00000000
Ag  26.00000000  2.00000000  16.00000000
Ag  24.00000000  2.00000000  18.00000000
Ag  26.00000000  0.00000000  18.00000000
Ag  28.00000000  0.00000000  16.00000000
Ag  30.00000000  2.00000000  16.00000000
Ag  28.00000000  2.00000000  18.00000000
Ag  30.00000000  0.00000000  18.00000000
Ag  32.00000000  0.00000000  16.00000000
Ag  34.00000000  2.00000000  16.00000000
Ag  32.00000000  2.00000000  18.00000000
Ag  34.00000000  0.00000000  18.00000000
Ag  36.00000000  0.00000000  16.00000000
Ag  38.00000000  2.00000000  16.00000000
Ag  36.00000000  2.00000000  18.00000000
Ag  38.00000000  0.00000000  18.00000000
Ag  0.00000000  4.00000000  16.00000000
Ag  2.00000000  6.00000000  16.00000000
Ag  0.00000000  6.00000000  18.00000000
Ag  2.00000000  4.00000000  18.00000000
Ag  4.00000000  4.00000000  16.00000000
Ag  6.00000000  6.00000000  16.00000000
Ag  4.00000000  6.00000000  18.00000000
Ag  6.00000000  4.00000000  18.00000000
Ag  8.00000000  4.00000000  16.00000000
Ag  10.00000000  6.00000000  16.00000000
Ag  8.00000000  6.00000000  18.00000000
Ag  10.00000000  4.00000000  18.00000000
Ag  12.00000000  4.00000000  16.00000000
Ag  14.00000000  6.00000000  16.00000000
Ag  12.00000000  6.00000000  18.00000000
Ag  14.00000000  4.00000000  18.00000000
Ag  16.00000000  4.00000000  16.00000000
Ag  18.00000000  6.00000000  16.00000000
Ag  16.00000000  6.00000000  18.00000000
Ag  18.00000000  4.00000000  18.00000000
Ag  20.00000000  4.00000000  16.00000000
Ag  22.00000000  6.00000000  16.00000000
Ag  20.00000000  6.00000000  18.00000000
Ag  22.00000000  4.00000000  18.00000000
Ag  24.00000000  4.00000000  16.00000000
Ag  26.00000000  6.00000000  16.00000000
Ag  24.00000000  6.00000000  18.00000000
Ag  26.00000000  4.00000000  18.00000000
Ag  28.00000000  4.00000000  16.00000000
Ag  30.00000000  6.00000000  16.00000000
Ag  28.00000000  6.00000000  18.00000000
Ag  30.00000000  4.00000000  18.00000000
Ag  32.00000000  4.00000000  16.00000000
Ag  34.00000000  6.00000000  16.00000000
Ag  32.00000000  6.00000000  18.00000000
Ag  34.00000000  4.00000000  18.00000000
Ag  36.00000000  4.00000000  16.00000000
Ag  38.00000000  6.00000000  16.00000000
Ag  36.00000000  6.00000000  18.00000000
Ag  38.00000000  4.00000000  18.00000000
Ag  0.00000000  8.00000000  16.00000000
Ag  2.00000000  10.00000000  16.00000000
Ag  0.00000000  10.00000000  18.00000000
Ag  2.00000000  8.00000000  18.00000000
Ag  4.00000000  8.00000000  16.00000000
Ag  6.00000000  10.00000000  16.00000000
Ag  4.00000000  10.00000000  18.00000000
Ag  6.00000000  8.00000000  18.00000000
Ag  8.00000000  8.00000000  16.00000000
Ag  10.00000000  10.00000000  16.00000000
Ag  8.00000000  10.00000000  18.00000000
Ag  10.00000000  8.00000000  18.00000000
Ag  12.00000000  8.00000000  16.00000000
Ag  14.00000000  10.00000000  16.00000000
Ag  12.00000000  10.00000000  18.00000000
Ag  14.00000000  8.00000000  18.00000000
Ag  16.00000000  8.00000000  16.00000000
Ag  18.00000000  10.00000000  16.00000000
Ag  16.00000000  10.00000000  18.00000000
Ag  18.00000000  8.00000000  18.00000000
Ag  20.00000000  8.00000000  16.00000000
Ag  22.00000000  10.00000000  16.00000000
Ag  20.00000000  10.00000000  18.00000000
Ag  22.00000000  8.00000000  18.00000000
Ag  24.00000000  8.00000000  16.00000000
Ag  26.00000000  10.00000000  16.00000000
Ag  24.00000000  10.00000000  18.00000000
Ag  26.00000000  8.00000000  18.00000000
Ag  28.00000000  8.00000000  16.00000000
Ag  30.00000000  10.00000000  16.00000000
Ag  28.00000000  10.00000000  18.00000000
Ag  30.00000000  8.00000000  18.00000000
Ag  32.00000000  8.00000000  16.00000000
Ag  34.00000000  10.00000000  16.00000000
Ag  32.00000000  10.00000000  18.00000000
Ag  34.00000000  8.00000000  18.00000000
Ag  36.00000000  8.00000000  16.00000000
Ag  38.00000000  10.00000000  16.00000000
Ag  36.00000000  10.00000000  18.00000000
Ag  38.00000000  8.00000000  18.00000000
Ag  0.00000000  12.00000000  16.00000000
Ag  2.00000000  14.00000000  16.00000000
Ag  0.00000000  14.00000000  18.00000000
Ag  2.00000000  12.00000000  18.00000000
Ag  4.00000000  12.00000000  16.00000000
Ag  6.00000000  14.00000000  16.00000000
Ag  4.00000000  14.00000000  18.00000000
Ag  6.00000000  12.00000000  18.00000000
Ag  8.00000000  12.00000000  16.00000000
Ag  10.00000000  14.00000000  16.00000000
Ag  8.00000000  14.00000000  18.00000000
Ag  10.00000000  12.00000000  18.00000000
Ag  12.00000000  12.00000000  16.00000000
Ag  14.00000000  14.00000000  16.00000000
Ag  12.00000000  14.00000000  18.00000000
Ag  14.00000000  12.00000000  18.00000000
Ag  16.00000000  12.00000000  16.00000000
Ag  18.00000000  14.00000000  16.00000000
Ag  16.00000000  14.00000000  18.00000000
Ag  18.00000000  12.00000000  18.00000000
Ag  20.00000000  12.00000000  16.00000000
Ag  22.00000000  14.00000000  16.00000000
Ag  20.00000000  14.00000000  18.00000000
Ag  22.00000000  12.00000000  18.00000000
Ag  24.00000000  12.00000000  16.00000000
Ag  26.00000000  14.00000000  16.00000000
Ag  24.00000000  14.00000000  18.00000000
Ag  26.00000000  12.00000000  18.00000000
Ag  28.00000000  12.00000000  16.00000000
Ag  30.00000000  14.00000000  16.00000000
Ag  28.00000000  14.00000000  18.00000000
Ag  30.00000000  12.00000000  18.00000000
Ag  32.00000000  12.00000000  16.00000000
Ag  34.00000000  14.00000000  16.00000000
Ag  32.00000000  14.00000000  18.00000000
Ag  34.00000000  12.00000000  18.00000000
Ag  36.00000000  12.00000000  16.00000000
Ag  38.00000000  14.00000000  16.00000000
Ag  36.00000000  14.00000000  18.00000000
Ag  38.00000000  12.00000000  18.00000000
Ag  0.00000000  16.00000000  16.00000000
Ag  2.00000000  18.00000000  16.00000000
Ag  0.00000000  18.00000000  18.00000000
Ag  2.00000000  16.00000000  18.00000000
Ag  4.00000000  16.00000000  16.00000000
Ag  6.00000000  18.00000000  16.00000000
Ag  4.00000000  18.00000000  18.00000000
Ag  6.00000000  16.00000000  18.00000000
Ag  8.00000000  16.00000000  16.00000000
Ag  10.00000000  18.00000000  16.00000000
Ag  8.00000000  18.00000000  18.00000000
Ag  10.00000000  16.00000000  18.00000000
Ag  12.00000000  16.00000000  16.00000000
Ag  14.00000000  18.00000000  16.00000000
Ag  12.00000000  18.00000000  18.00000000
Ag  14.00000000  16.00000000  18.00000000
Ag  16.00000000  16.00000000  16.00000000
Ag  18.00000000  18.00000000  16.00000000
Ag  16.00000000  18.00000000  18.00000000
Ag  18.00000000  16.00000000  18.00000000
Ag  20.00000000  16.00000000  16.00000000
Ag  22.00000000  18.00000000  16.00000000
Ag  20.00000000  18.00000000  18.00000000
Ag  22.00000000  16.00000000  18.00000000
Ag  24.00000000  16.00000000  16.00000000
Ag  26.00000000  18.00000000  16.00000000
Ag  24.00000000  18.00000000  18.00000000
Ag  26.00000000  16.00000000  18.00000000
Ag  28.00000000  16.00000000  16.00000000
Ag  30.00000000  18.00000000  16.00000000
Ag  28.00000000  18.00000000  18.00000000
Ag  30.00000000  16.00000000  18.00000000
Ag  32.00000000  16.00000000  16.00000000
Ag  34.00000000  18.00000000  16.00000000
Ag  32.00000000  18.00000000  18.00000000
Ag  34.00000000  16.00000000  18.00000000
Ag  36.00000000  16.00000000  16.00000000
Ag  38.00000000  18.00000000  16.00000000
Ag  36.00000000  18.00000000  18.00000000
Ag  38.00000000  16.00000000  18.00000000
Ag  0.00000000  20.00000000  16.00000000
Ag  2.00000000  22.00000000  16.00000000
Ag  0.00000000  22.00000000  18.00000000
Ag  2.00000000  20.00000000  18.00000000
Ag  4.00000000  20.00000000  16.00000000
Ag  6.00000000  22.00000000  16.00000000
Ag  4.00000000  22.00000000  18.00000000
Ag  6.00000000  20.00000000  18.00000000
Ag  8.00000000  20.00000000  16.00000000
Ag  10.00000000  22.00000000  16.00000000
Ag  8.00000000  22.00000000  18.00000000
Ag  10.00000000  20.00000000  18.00000000
Ag  12.00000000  20.00000000  16.00000000
Ag  14.00000000  22.00000000  16.00000000
Ag  12.00000000  22.00000000  18.00000000
Ag  14.00000000  20.00000000  18.00000000
Ag  16.00000000  20.00000000  16.00000000
Ag  18.00000000  22.00000000  16.00000000
Ag  16.00000000  22.00000000  18.00000000
Ag  18.00000000  20.00000000  18.00000000
Ag  20.00000000  20.00000000  16.00000000
Ag  22.00000000  22.00000000  16.00000000
Ag  20.00000000  22.00000000  18.00000000
Ag  22.00000000  20.00000000  18.00000000
Ag  24.00000000  20.00000000  16.00000000
Ag  26.00000000  22.00000000  16.00000000
Ag  24.00000000  22.00000000  18.00000000
Ag  26.00000000  20.00000000  18.00000000
Ag  28.00000000  20.00000000  16.00000000
Ag  30.00000000  22.00000000  16.00000000
Ag  28.00000000  22.00000000  18.00000000
Ag  30.00000000  20.00000000  18.00000000
Ag  32.00000000  20.00000000  16.00000000
Ag  34.00000000  22.00000000  16.00000000
Ag  32.00000000  22.00000000  18.00000000
Ag  34.00000000  20.00000000  18.00000000
Ag  36.00000000  20.00000000  16.00000000
Ag  38.00000000  22.00000000  16.00000000
Ag  36.00000000  22.00000000  18.00000000
Ag  38.00000000  20.00000000  18.00000000
Ag  0.00000000  24.00000000  16.00000000
Ag  2.00000000  26.00000000  16.00000000
Ag  0.00000000  26.00000000  18.00000000
Ag  2.00000000  24.00000000  18.00000000
Ag  4.00000000  24.00000000  16.00000000
Ag  6.00000000  26.00000000  16.00000000
Ag  4.00000000  26.00000000  18.00000000
Ag  6.00000000  24.00000000  18.00000000
Ag  8.00000000  24.00000000  16.00000000
Ag  10.00000000  26.00000000  16.00000000
Ag  8.00000000  26.00000000  18.00000000
Ag  10.00000000  24.00000000  18.00000000
Ag  12.00000000  24.00000000  16.00000000
Ag  14.00000000  26.00000000  16.00000000
Ag  12.00000000  26.00000000  18.00000000
Ag  14.00000000  24.00000000  18.00000000
Ag  16.00000000  24.00000000  16.00000000
Ag  18.00000000  26.00000000  16.00000000
Ag  16.00000000  26.00000000  18.00000000
Ag  18.00000000  24.00000000  18.00000000
Ag  20.00000000  24.00000000  16.00000000
Ag  22.00000000  26.00000000  16.00000000
Ag  20.00000000  26.00000000  18.00000000
Ag  22.00000000  24.00000000  18.00000000
Ag  24.00000000  24.00000000  16.00000000
Ag  26.00000000  26.00000000  16.00000000
Ag  24.00000000  26.00000000  18.00000000
Ag  26.00000000  24.00000000  18.00000000
Ag  28.00000000  24.00000000  16.00000000
Ag  30.00000000  26.00000000  16.00000000
Ag  28.00000000  26.00000000  18.00000000
Ag  30.00000000  24.00000000  18.00000000
Ag  32.00000000  24.00000000  16.00000000
Ag  34.00000000  26.00000000  16.00000000
Ag  32.00000000  26.00000000  18.00000000
Ag  34.00000000  24.00000000  18.00000000
Ag  36.00000000  24.00000000  16.00000000
Ag  38.00000000  26.00000000  16.00000000
Ag  36.00000000  26.00000000  18.00000000
Ag  38.00000000  24.00000000  18.00000000
Ag  0.00000000  28.00000000  16.00000000
Ag  2.00000000  30.00000000  16.00000000
Ag  0.00000000  30.00000000  18.00000000
Ag  2.00000000  28.00000000  18.00000000
Ag  4.00000000  28.00000000  16.00000000
Ag  6.00000000  30.00000000  16.00000000
Ag  4.00000000  30.00000000  18.00000000
Ag  6.00000000  28.00000000  18.00000000
Ag  8.00000000  28.00000000  16.00000000
Ag  10.00000000  30.00000000  16.00000000
Ag  8.00000000  30.00000000  18.00000000
Ag  10.00000000  28.00000000  18.00000000
Ag  12.00000000  28.00000000  16.00000000
Ag  14.00000000  30.00000000  16.00000000
Ag  12.00000000  30.00000000  18.00000000
Ag  14.00000000  28.00000000  18.00000000
Ag  16.00000000  28.00000000  16.00000000
Ag  18.00000000  30.00000000  16.00000000
Ag  16.00000000  30.00000000  18.00000000
Ag  18.00000000  28.00000000  18.00000000
Ag  20.00000000  28.00000000  16.00000000
Ag  22.00000000  30.00000000  16.00000000
Ag  20.00000000  30.00000000  18.00000000
Ag  22.00000000  28.00000000  18.00000000
Ag  24.00000000  28.00000000  16.00000000
Ag  26.00000000  30.00000000  16.00000000
Ag  24.00000000  30.00000000  18.00000000
Ag  26.00000000  28.00000000  18.00000000
Ag  28.00000000  28.00000000  16.00000000
Ag  30.00000000  30.00000000  16.00000000
Ag  28.00000000  30.00000000  18.00000000
Ag  30.00000000  28.00000000  18.00000000
Ag  32.00000000  28.00000000  16.00000000
Ag  34.00000000  30.00000000  16.00000000
Ag  32.00000000  30.00000000  18.00000000
Ag  34.00000000  28.00000000  18.00000000
Ag  36.00000000  28.00000000  16.00000000
Ag  38.00000000  30.00000000  16.00000000
Ag  36.00000000  30.00000000  18.00000000
Ag  38.00000000  28.00000000  18.00000000
Ag  0.00000000  32.00000000  16.00000000
Ag  2.00000000  34.00000000  16.00000000
Ag  0.00000000  34.00000000  18.00000000
Ag  2.00000000  32.00000000  18.00000000
Ag  4.00000000  32.00000000  16.00000000
Ag  6.00000000  34.00000000  16.00000000
Ag  4.00000000  34.00000000  18.00000000
Ag  6.00000000  32.00000000  18.00000000
Ag  8.00000000  32.00000000  16.00000000
Ag  10.00000000  34.00000000  16.00000000
Ag  8.00000000  34.00000000  18.00000000
Ag  10.00000000  32.00000000  18.00000000
Ag  12.00000000  32.00000000  16.00000000
Ag  14.00000000  34.00000000  16.00000000
Ag  12.00000000  34.00000000  18.00000000
Ag  14.00000000  32.00000000  18.00000000
Ag  16.00000000  32.00000000  16.00000000
Ag  18.00000000  34.00000000  16.00000000
Ag  16.00000000  34.00000000  18.00000000
Ag  18.00000000  32.00000000  18.00000000
Ag  20.00000000  32.00000000  16.00000000
Ag  22.00000000  34.00000000  16.00000000
Ag  20.00000000  34.00000000  18.00000000
Ag  22.00000000  32.00000000  18.00000000
Ag  24.00000000  32.00000000  16.00000000
Ag  26.00000000  34.00000000  16.00000000
Ag  24.00000000  34.00000000  18.00000000
Ag  26.00000000  32.00000000  18.00000000
Ag  28.00000000  32.00000000  16.00000000
Ag  30.00000000  34.00000000  16.00000000
Ag  28.00000000  34.00000000  18.00000000
Ag  30.00000000  32.00000000  18.00000000
Ag  32.00000000  32.00000000  16.00000000
Ag  34.00000000  34.00000000  16.00000000
Ag  32.00000000  34.00000000  18.00000000
Ag  34.00000000  32.00000000  18.00000000
Ag  36.00000000  32.00000000  16.00000000
Ag  38.00000000  34.00000000  16.00000000
Ag  36.00000000  34.00000000  18.00000000
Ag  38.00000000  32.00000000  18.00000000
Ag  0.00000000  36.00000000  16.00000000
Ag  2.00000000  38.00000000  16.00000000
Ag  0.00000000  38.00000000  18.00000000
Ag  2.00000000  36.00000000  18.00000000
Ag  4.00000000  36.00000000  16.00000000
Ag  6.00000000  38.00000000  16.00000000
Ag  4.00000000  38.00000000  18.00000000
Ag  6.00000000  36.00000000  18.00000000
Ag  8.00000000  36.00000000  16.00000000
Ag  10.00000000  38.00000000  16.00000000
Ag  8.00000000  38.00000000  18.00000000
Ag  10.00000000  36.00000000  18.00000000
Ag  12.00000000  36.00000000  16.00000000
Ag  14.00000000  38.00000000  16.00000000
Ag  12.00000000  38.00000000  18.00000000
Ag  14.00000000  36.00000000  18.00000000
Ag  16.00000000  36.00000000  16.00000000
Ag  18.00000000  38.00000000  16.00000000
Ag  16.00000000  38.00000000  18.00000000
Ag  18.00000000  36.00000000  18.00000000
Ag  20.00000000  36.00000000  16.00000000
Ag  22.00000000  38.00000000  16.00000000
Ag  20.00000000  38.00000000  18.00000000
Ag  22.00000000  36.00000000  18.00000000
Ag  24.00000000  36.00000000  16.00000000
Ag  26.00000000  38.00000000  16.00000000
Ag  24.00000000  38.00000000  18.00000000
Ag  26.00000000  36.00000000  18.00000000
Ag  28.00000000  36.00000000  16.00000000
Ag  30.00000000  38.00000000  16.00000000
Ag  28.00000000  38.00000000  18.00000000
Ag  30.00000000  36.00000000  18.00000000
Ag  32.00000000  36.00000000  16.00000000
Ag  34.00000000  38.00000000  16.00000000
Ag  32.00000000  38.00000000  18.00000000
Ag  34.00000000  36.00000000  18.00000000
Ag  36.00000000  36.00000000  16.00000000
Ag  38.00000000  38.00000000  16.00000000
Ag  36.00000000  38.00000000  18.00000000
Ag  38.00000000  36.00000000  18.00000000
Ag  0.00000000  0.00000000  20.00000000
Ag  2.00000000  2.00000000  20.00000000
Ag  0.00000000  2.00000000  22.00000000
Ag  2.00000000  0.00000000  22.00000000
Ag  4.00000000  0.00000000  20.00000000
Ag  6.00000000  2.00000000  20.00000000
Ag  4.00000000  2.00000000  22.00000000
Ag  6.00000000  0.00000000  22.00000000
Ag  8.00000000  0.00000000  20.00000000
Ag  10.00000000  2.00000000  20.00000000
Ag  8.00000000  2.00000000  22.00000000
Ag  10.00000000  0.00000000  22.00000000
Ag  12.00000000  0.00000000  20.00000000
Ag  14.00000000  2.00000000  20.00000000
Ag  12.00000000  2.00000000  22.00000000
Ag  14.00000000  0.00000000  22.00000000
Ag  16.00000000  0.00000000  20.00000000
Ag  18.00000000  2.00000000  20.00000000
Ag  16.00000000  2.00000000  22.00000000
Ag  18.00000000  0.00000000  22.00000000
Ag  20.00000000  0.00000000  20.00000000
Ag  22.00000000  2.00000000  20.00000000
Ag  20.00000000  2.00000000  22.00000000
Ag  22.00000000  0.00000000  22.00000000
Ag  24.00000000  0.00000000  20.00000000
Ag  26.00000000  2.00000000  20.00000000
Ag  24.00000000  2.00000000  22.00000000
Ag  26.00000000  0.00000000  22.00000000
Ag  28.00000000  0.00000000  20.00000000
Ag  30.00000000  2.00000000  20.00000000
Ag  28.00000000  2.00000000  22.00000000
Ag  30.00000000  0.00000000  22.00000000
Ag  32.00000000  0.00000000  20.00000000
Ag  34.00000000  2.00000000  20.00000000
Ag  32.00000000  2.00000000  22.00000000
Ag  34.00000000  0.00000000  22.00000000
Ag  36.00000000  0.00000000  20.00000000
Ag  38.00000000  2.00000000  20.00000000
Ag  36.00000000  2.00000000  22.00000000
Ag  38.00000000  0.00000000  22.00000000
Ag  0.00000000  4.00000000  20.00000000
Ag  2.00000000  6.00000000  20.00000000
Ag  0.00000000  6.00000000  22.00000000
Ag  2.00000000  4.00000000  22.00000000
Ag  4.00000000  4.00000000  20.00000000
Ag  6.00000000  6.00000000  20.00000000
Ag  4.00000000  6.00000000  22.00000000
Ag  6.00000000  4.00000000  22.00000000
Ag  8.00000000  4.00000000  20.00000000
Ag  10.00000000  6.00000000  20.00000000
Ag  8.00000000  6.00000000  22.00000000
Ag  10.00000000  4.00000000  22.00000000
Ag  12.00000000  4.00000000  20.00000000
Ag  14.00000000  6.00000000  20.00000000
Ag  12.00000000  6.00000000  22.00000000
Ag  14.00000000  4.00000000  22.00000000
Ag  16.00000000  4.00000000  20.00000000
Ag  18.00000000  6.00000000  20.00000000
Ag  16.00000000  6.00000000  22.00000000
Ag  18.00000000  4.00000000  22.00000000
Ag  20.00000000  4.00000000  20.00000000
Ag  22.00000000  6.00000000  20.00000000
Ag  20.00000000  6.00000000  22.00000000
Ag  22.00000000  4.00000000  22.00000000
Ag  24.00000000  4.00000000  20.00000000
Ag  26.00000000  6.00000000  20.00000000
Ag  24.00000000  6.00000000  22.00000000
Ag  26.00000000  4.00000000  22.00000000
Ag  28.00000000  4.00000000  20.00000000
Ag  30.00000000  6.00000000  20.00000000
Ag  28.00000000  6.00000000  22.00000000
Ag  30.00000000  4.00000000  22.00000000
Ag  32.00000000  4.00000000  20.00000000
Ag  34.00000000  6.00000000  20.00000000
Ag  32.00000000  6.00000000  22.00000000
Ag  34.00000000  4.00000000  22.00000000
Ag  36.00000000  4.00000000  20.00000000
Ag  38.00000000  6.00000000  20.00000000
Ag  36.00000000  6.00000000  22.00000000
Ag  38.00000000  4.00000000  22.00000000
Ag  0.00000000  8.00000000  20.00000000
Ag  2.00000000  10.00000000  20.00000000
Ag  0.00000000  10.00000000  22.00000000
Ag  2.00000000  8.00000000  22.00000000
Ag  4.00000000  8.00000000  20.00000000
Ag  6.00000000  10.00000000  20.00000000
Ag  4.00000000  10.00000000  22.00000000
Ag  6.00000000  8.00000000  22.00000000
Ag  8.00000000  8.00000000  20.00000000
Ag  10.00000000  10.00000000  20.00000000
Ag  8.00000000  10.00000000  22.00000000
Ag  10.00000000  8.00000000  22.00000000
Ag  12.00000000  8.00000000  20.00000000
Ag  14.00000000  10.00000000  20.00000000
Ag  12.00000000  10.00000000  22.00000000
Ag  14.00000000  8.00000000  22.00000000
Ag  16.00000000  8.00000000  20.00000000
Ag  18.00000000  10.00000000  20.00000000
Ag  16.00000000  10.00000000  22.00000000
Ag  18.00000000  8.00000000  22.00000000
Ag  20.00000000  8.00000000  20.00000000
Ag  22.00000000  10.00000000  20.00000000
Ag  20.00000000  10.00000000  22.00000000
Ag  22.00000000  8.00000000  22.00000000
Ag  24.00000000  8.00000000  20.00000000
Ag  26.00000000  10.00000000  20.00000000
Ag  24.00000000  10.00000000  22.00000000
Ag  26.00000000  8.00000000  22.00000000
Ag  28.00000000  8.00000000  20.00000000
Ag  30.00000000  10.00000000  20.00000000
Ag  28.00000000  10.00000000  22.00000000
Ag  30.00000000  8.00000000  22.00000000
Ag  32.00000000  8.00000000  20.00000000
Ag  34.00000000  10.00000000  20.00000000
Ag  32.00000000  10.00000000  22.00000000
Ag  34.00000000  8.00000000  22.00000000
Ag  36.00000000  8.00000000  20.00000000
Ag  38.00000000  10.00000000  20.00000000
Ag  36.00000000  10.00000000  22.00000000
Ag  38.00000000  8.00000000  22.00000000
Ag  0.00000000  12.00000000  20.00000000
Ag  2.00000000  14.00000000  20.00000000
Ag  0.00000000  14.00000000  22.00000000
Ag  2.00000000  12.00000000  22.00000000
Ag  4.00000000  12.00000000  20.00000000
Ag  6.00000000  14.00000000  20.00000000
Ag  4.00000000  14.00000000  22.00000000
Ag  6.00000000  12.00000000  22.00000000
Ag  8.00000000  12.00000000  20.00000000
Ag  10.00000000  14.00000000  20.00000000
Ag  8.00000000  14.00000000  22.00000000
Ag  10.00000000  12.00000000  22.00000000
Ag  12.00000000  12.00000000  20.00000000
Ag  14.00000000  14.00000000  20.00000000
Ag  12.00000000  14.00000000  22.00000000
Ag  14.00000000  12.00000000  22.00000000
Ag  16.00000000  12.00000000  20.00000000
Ag  18.00000000  14.00000000  20.00000000
Ag  16.00000000  14.00000000  22.00000000
Ag  18.00000000  12.00000000  22.00000000
Ag  20.00000000  12.00000000  20.00000000
Ag  22.00000000  14.00000000  20.00000000
Ag  20.00000000  14.00000000  22.00000000
Ag  22.00000000  12.00000000  22.00000000
Ag  24.00000000  12.00000000  20.00000000
Ag  26.00000000  14.00000000  20.00000000
Ag  24.00000000  14.00000000  22.00000000
Ag  26.00000000  12.00000000  22.00000000
Ag  28.00000000  12.00000000  20.00000000
Ag  30.00000000  14.00000000  20.00000000
Ag  28.00000000  14.00000000  22.00000000
Ag  30.00000000  12.00000000  22.00000000
Ag  32.00000000  12.00000000  20.00000000
Ag  34.00000000  14.00000000  20.00000000
Ag  32.00000000  14.00000000  22.00000000
Ag  34.00000000  12.00000000  22.00000000
Ag  36.00000000  12.00000000  20.00000000
Ag  38.00000000  14.00000000  20.00000000
Ag  36.00000000  14.00000000  22.00000000
Ag  38.00000000  12.00000000  22.00000000
Ag  0.00000000  16.00000000  20.00000000
Ag  2.00000000  18.00000000  20.00000000
Ag  0.00000000  18.00000000  22.00000000
Ag  2.00000000  16.00000000  22.00000000
Ag  4.00000000  16.00000000  20.00000000
Ag  6.00000000  18.00000000  20.00000000
Ag  4.00000000  18.00000000  22.00000000
Ag  6.00000000  16.00000000  22.00000000
Ag  8.00000000  16.00000000  20.00000000
Ag  10.00000000  18.00000000  20.00000000
Ag  8.00000000  18.00000000  22.00000000
Ag  10.00000000  16.00000000  22.00000000
Ag  12.00000000  16.00000000  20.00000000
Ag  14.00000000  18.00000000  20.00000000
Ag  12.00000000  18.00000000  22.00000000
Ag  14.00000000  16.00000000  22.00000000
Ag  16.00000000  16.00000000  20.00000000
Ag  18.00000000  18.00000000  20.00000000
Ag  16.00000000  18.00000000  22.00000000
Ag  18.00000000  16.00000000  22.00000000
Ag  20.00000000  16.00000000  20.00000000
Ag  22.00000000  18.00000000  20.00000000
Ag  20.00000000  18.00000000  22.00000000
Ag  22.00000000  16.00000000  22.00000000
Ag  24.00000000  16.00000000  20.00000000
Ag  26.00000000  18.00000000  20.00000000
Ag  24.00000000  18.00000000  22.00000000
Ag  26.00000000  16.00000000  22.00000000
Ag  28.00000000  16.00000000  20.00000000
Ag  30.00000000  18.00000000  20.00000000
Ag  28.00000000  18.00000000  22.00000000
Ag  30.00000000  16.00000000  22.00000000
Ag  32.00000000  16.00000000  20.00000000
Ag  34.00000000  18.00000000  20.00000000
Ag  32.00000000  18.00000000  22.00000000
Ag  34.00000000  16.00000000  22.00000000
Ag  36.00000000  16.00000000  20.00000000
Ag  38.00000000  18.00000000  20.00000000
Ag  36.00000000  18.00000000  22.00000000
Ag  38.00000000  16.00000000  22.00000000
Ag  0.00000000  20.00000000  20.00000000
Ag  2.00000000  22.00000000  20.00000000
Ag  0.00000000  22.00000000  22.00000000
Ag  2.00000000  20.00000000  22.00000000
Ag  4.00000000  20.00000000  20.00000000
Ag  6.00000000  22.00000000  20.00000000
Ag  4.00000000  22.00000000  22.00000000
Ag  6.00000000  20.00000000  22.00000000
Ag  8.00000000  20.00000000  20.00000000
Ag  10.00000000  22.00000000  20.00000000
Ag  8.00000000  22.00000000  22.00000000
Ag  10.00000000  20.00000000  22.00000000
Ag  12.00000000  20.00000000  20.00000000
Ag  14.00000000  22.00000000  20.00000000
Ag  12.00000000  22.00000000  22.00000000
Ag  14.00000000  20.00000000  22.00000000
Ag  16.00000000  20.00000000  20.00000000
Ag  18.00000000  22.00000000  20.00000000
Ag  16.00000000  22.00000000  22.00000000
Ag  18.00000000  20.00000000  22.00000000
Ag  20.00000000  20.00000000  20.00000000
Ag  22.00000000  22.00000000  20.00000000
Ag  20.00000000  22.00000000  22.00000000
Ag  22.00000000  20.00000000  22.00000000
Ag  24.00000000  20.00000000  20.00000000
Ag  26.00000000  22.00000000  20.00000000
Ag  24.00000000  22.00000000  22.00000000
Ag  26.00000000  20.00000000  22.00000000
Ag  28.00000000  20.00000000  20.00000000
Ag  30.00000000  22.00000000  20.00000000
Ag  28.00000000  22.00000000  22.00000000
Ag  30.00000000  20.00000000  22.00000000
Ag  32.00000000  20.00000000  20.00000000
Ag  34.00000000  22.00000000  20.00000000
Ag  32.00000000  22.00000000  22.00000000
Ag  34.00000000  20.00000000  22.00000000
Ag  36.00000000  20.00000000  20.00000000
Ag  38.00000000  22.00000000  20.00000000
Ag  36.00000000  22.00000000  22.00000000
Ag  38.00000000  20.00000000  22.00000000
Ag  0.00000000  24.00000000  20.00000000
Ag  2.00000000  26.00000000  20.00000000
Ag  0.00000000  26.00000000  22.00000000
Ag  2.00000000  24.00000000  22.00000000
Ag  4.00000000  24.00000000  20.00000000
Ag  6.00000000  26.00000000  20.00000000
Ag  4.00000000  26.00000000  22.00000000
Ag  6.00000000  24.00000000  22.00000000
Ag  8.00000000  24.00000000  20.00000000
Ag  10.00000000  26.00000000  20.00000000
Ag  8.00000000  26.00000000  22.00000000
Ag  10.00000000  24.00000000  22.00000000
Ag  12.00000000  24.00000000  20.00000000
Ag  14.00000000  26.00000000  20.00000000
Ag  12.00000000  26.00000000  22.00000000
Ag  14.00000000  24.00000000  22.00000000
Ag  16.00000000  24.00000000  20.00000000
Ag  18.00000000  26.00000000  20.00000000
Ag  16.00000000  26.00000000  22.00000000
Ag  18.00000000  24.00000000  22.00000000
Ag  20.00000000  24.00000000  20.00000000
Ag  22.00000000  26.00000000  20.00000000
Ag  20.00000000  26.00000000  22.00000000
Ag  22.00000000  24.00000000  22.00000000
Ag  24.00000000  24.00000000  20.00000000
Ag  26.00000000  26.00000000  20.00000000
Ag  24.00000000  26.00000000  22.00000000
Ag  26.00000000  24.00000000  22.00000000
Ag  28.00000000  24.00000000  20.00000000
Ag  30.00000000  26.00000000  20.00000000
Ag  28.00000000  26.00000000  22.00000000
Ag  30.00000000  24.00000000  22.00000000
Ag  32.00000000  24.00000000  20.00000000
Ag  34.00000000  26.00000000  20.00000000
Ag  32.00000000  26.00000000  22.00000000
Ag  34.00000000  24.00000000  22.00000000
Ag  36.00000000  24.00000000  20.00000000
Ag  38.00000000  26.00000000  20.00000000
Ag  36.00000000  26.00000000  22.00000000
Ag  38.00000000  24.00000000  22.00000000
Ag  0.00000000  28.00000000  20.00000000
Ag  2.00000000  30.00000000  20.00000000
Ag  0.00000000  30.00000000  22.00000000
Ag  2.00000000  28.00000000  22.00000000
Ag  4.00000000  28.00000000  20.00000000
Ag  6.00000000  30.00000000  20.00000000
Ag  4.00000000  30.00000000  22.00000000
Ag  6.00000000  28.00000000  22.00000000
Ag  8.00000000  28.00000000  20.00000000
Ag  10.00000000  30.00000000  20.00000000
Ag  8.00000000  30.00000000  22.00000000
Ag  10.00000000  28.00000000  22.00000000
Ag  12.00000000  28.00000000  20.00000000
Ag  14.00000000  30.00000000  20.00000000
Ag  12.00000000  30.00000000  22.00000000
Ag  14.00000000  28.00000000  22.00000000
Ag  16.00000000  28.00000000  20.00000000
Ag  18.00000000  30.00000000  20.00000000
Ag  16.00000000  30.00000000  22.00000000
Ag  18.00000000  28.00000000  22.00000000
Ag  20.00000000  28.00000000  20.00000000
Ag  22.00000000  30.00000000  20.00000000
Ag  20.00000000  30.00000000  22.00000000
Ag  22.00000000  28.00000000  22.00000000
Ag  24.00000000  28.00000000  20.00000000
Ag  26.00000000  30.00000000  20.00000000
Ag  24.00000000  30.00000000  22.00000000
Ag  26.00000000  28.00000000  22.00000000
Ag  28.00000000  28.00000000  20.00000000
Ag  30.00000000  30.00000000  20.00000000
Ag  28.00000000  30.00000000  22.00000000
Ag  30.00000000  28.00000000  22.00000000
Ag  32.00000000  28.00000000  20.00000000
Ag  34.00000000  30.00000000  20.00000000
Ag  32.00000000  30.00000000  22.00000000
Ag  34.00000000  28.00000000  22.00000000
Ag  36.00000000  28.00000000  20.00000000
Ag  38.00000000  30.00000000  20.00000000
Ag  36.00000000  30.00000000  22.00000000
Ag  38.00000000  28.00000000  22.00000000
Ag  0.00000000  32.00000000  20.00000000
Ag  2.00000000  34.00000000  20.00000000
Ag  0.00000000  34.00000000  22.00000000
Ag  2.00000000  32.00000000  22.00000000
Ag  4.00000000  32.00000000  20.00000000
Ag  6.00000000  34.00000000  20.00000000
Ag  4.00000000  34.00000000  22.00000000
Ag  6.00000000  32.00000000  22.00000000
Ag  8.00000000  32.00000000  20.00000000
Ag  10.00000000  34.00000000  20.00000000
Ag  8.00000000  34.00000000  22.00000000
Ag  10.00000000  32.00000000  22.00000000
Ag  12.00000000  32.00000000  20.00000000
Ag  14.00000000  34.00000000  20.00000000
Ag  12.00000000  34.00000000  22.00000000
Ag  14.00000000  32.00000000  22.00000000
Ag  16.00000000  32.00000000  20.00000000
Ag  18.00000000  34.00000000  20.00000000
Ag  16.00000000  34.00000000  22.00000000
Ag  18.00000000  32.00000000  22.00000000
Ag  20.00000000  32.00000000  20.00000000
Ag  22.00000000  34.00000000  20.00000000
Ag  20.00000000  34.00000000  22.00000000
Ag  22.00000000  32.00000000  22.00000000
Ag  24.00000000  32.00000000  20.00000000
Ag  26.00000000  34.00000000  20.00000000
Ag  24.00000000  34.00000000  22.00000000
Ag  26.00000000  32.00000000  22.00000000
Ag  28.00000000  32.00000000  20.00000000
Ag  30.00000000  34.00000000  20.00000000
Ag  28.00000000  34.00000000  22.00000000
Ag  30.00000000  32.00000000  22.00000000
Ag  32.00000000  32.00000000  20.00000000
Ag  34.00000000  34.00000000  20.00000000
Ag  32.00000000  34.00000000  22.00000000
Ag  34.00000000  32.00000000  22.00000000
Ag  36.00000000  32.00000000  20.00000000
Ag  38.00000000  34.00000000  20.00000000
Ag  36.00000000  34.00000000  22.00000000
Ag  38.00000000  32.00000000  22.00000000
Ag  0.00000000  36.00000000  20.00000000
Ag  2.00000000  38.00000000  20.00000000
Ag  0.00000000  38.00000000  22.00000000
Ag  2.00000000  36.00000000  22.00000000
Ag  4.00000000  36.00000000  20.00000000
Ag  6.00000000  38.00000000  20.00000000
Ag  4.00000000  38.00000000  22.00000000
Ag  6.00000000  36.00000000  22.00000000
Ag  8.00000000  36.00000000  20.00000000
Ag  10.00000000  38.00000000  20.00000000
Ag  8.00000000  38.00000000  22.00000000
Ag  10.00000000  36.00000000  22.00000000
Ag  12.00000000  36.00000000  20.00000000
Ag  14.00000000  38.00000000  20.00000000
Ag  12.00000000  38.00000000  22.00000000
Ag  14.00000000  36.00000000  22.00000000
Ag  16.00000000  36.00000000  20.00000000
Ag  18.00000000  38.00000000  20.00000000
Ag  16.00000000  38.00000000  22.00000000
Ag  18.00000000  36.00000000  22.00000000
Ag  20.00000000  36.00000000  20.00000000
Ag  22.00000000  38.00000000  20.00000000
Ag  20.00000000  38.00000000  22.00000000
Ag  22.00000000  36.00000000  22.00000000
Ag  24.00000000  36.00000000  20.00000000
Ag  26.00000000  38.00000000  20.00000000
Ag  24.00000000  38.00000000  22.00000000
Ag  26.00000000  36.00000000  22.00000000
Ag  28.00000000  36.00000000  20.00000000
Ag  30.00000000  38.00000000  20.00000000
Ag  28.00000000  38.00000000  22.00000000
Ag  30.00000000  36.00000000  22.00000000
Ag  32.00000000  36.00000000  20.00000000
Ag  34.00000000  38.00000000  20.00000000
Ag  32.00000000  38.00000000  22.00000000
Ag  34.00000000  36.00000000  22.00000000
Ag  36.00000000  36.00000000  20.00000000
Ag  38.00000000  38.00000000  20.00000000
Ag  36.00000000  38.00000000  22.00000000
Ag  38.00000000  36.00000000  22.00000000
Ag  0.00000000  0.00000000  24.00000000
Ag  2.00000000  2.00000000  24.00000000
Ag  0.00000000  2.00000000  26.00000000
Ag  2.00000000  0.00000000  26.00000000
Ag  4.00000000  0.00000000  24.00000000
Ag  6.00000000  2.00000000  24.00000000
Ag  4.00000000  2.00000000  26.00000000
Ag  6.00000000  0.00000000  26.00000000
Ag  8.00000000  0.00000000  24.00000000
Ag  10.00000000  2.00000000  24.00000000
Ag  8.00000000  2.00000000  26.00000000
Ag  10.00000000  0.00000000  26.00000000
Ag  12.00000000  0.00000000  24.00000000
Ag  14.00000000  2.00000000  24.00000000
Ag  12.00000000  2.00000000  26.00000000
Ag  14.00000000  0.00000000  26.00000000
Ag  16.00000000  0.00000000  24.00000000
Ag  18.00000000  2.00000000  24.00000000
Ag  16.00000000  2.00000000  26.00000000
Ag  18.00000000  0.00000000  26.00000000
Ag  20.00000000  0.00000000  24.00000000
Ag  22.00000000  2.00000000  24.00000000
Ag  20.00000000  2.00000000  26.00000000
Ag  22.00000000  0.00000000  26.00000000
Ag  24.00000000  0.00000000  24.00000000
Ag  26.00000000  2.00000000  24.00000000
Ag  24.00000000  2.00000000  26.00000000
Ag  26.00000000  0.00000000  26.00000000
Ag  28.00000000  0.00000000  24.00000000
Ag  30.00000000  2.00000000  24.00000000
Ag  28.00000000  2.00000000  26.00000000
Ag  30.00000000  0.00000000  26.00000000
Ag  32.00000000  0.00000000  24.00000000
Ag  34.00000000  2.00000000  24.00000000
Ag  32.00000000  2.00000000  26.00000000
Ag  34.00000000  0.00000000  26.00000000
Ag  36.00000000  0.00000000  24.00000000
Ag  38.00000000  2.00000000  24.00000000
Ag  36.00000000  2.00000000  26.00000000
Ag  38.00000000  0.00000000  26.00000000
Ag  0.00000000  4.00000000  24.00000000
Ag  2.00000000  6.00000000  24.00000000
Ag  0.00000000  6.00000000  26.00000000
Ag  2.00000000  4.00000000  26.00000000
Ag  4.00000000  4.00000000  24.00000000
Ag  6.00000000  6.00000000  24.00000000
Ag  4.00000000  6.00000000  26.00000000
Ag  6.00000000  4.00000000  26.00000000
Ag  8.00000000  4.00000000  24.00000000
Ag  10.00000000  6.00000000  24.00000000
Ag  8.00000000  6.00000000  26.00000000
Ag  10.00000000  4.00000000  26.00000000
Ag  12.00000000  4.00000000  24.00000000
Ag  14.00000000  6.00000000  24.00000000
Ag  12.00000000  6.00000000  26.00000000
Ag  14.00000000  4.00000000  26.00000000
Ag  16.00000000  4.00000000  24.00000000
Ag  18.00000000  6.00000000  24.00000000
Ag  16.00000000  6.00000000  26.00000000
Ag  18.00000000  4.00000000  26.00000000
Ag  20.00000000  4.00000000  24.00000000
Ag  22.00000000  6.00000000  24.00000000
Ag  20.00000000  6.00000000  26.00000000
Ag  22.00000000  4.00000000  26.00000000
Ag  24.00000000  4.00000000  24.00000000
Ag  26.00000000  6.00000000  24.00000000
Ag  24.00000000  6.00000000  26.00000000
Ag  26.00000000  4.00000000  26.00000000
Ag  28.00000000  4.00000000  24.00000000
Ag  30.00000000  6.00000000  24.00000000
Ag  28.00000000  6.00000000  26.00000000
Ag  30.00000000  4.00000000  26.00000000
Ag  32.00000000  4.00000000  24.00000000
Ag  34.00000000  6.00000000  24.00000000
Ag  32.00000000  6.00000000  26.00000000
Ag  34.00000000  4.00000000  26.00000000
Ag  36.00000000  4.00000000  24.00000000
Ag  38.00000000  6.00000000  24.00000000
Ag  36.00000000  6.00000000  26.00000000
Ag  38.00000000  4.00000000  26.00000000
Ag  0.00000000  8.00000000  24.00000000
Ag  2.00000000  10.00000000  24.00000000
Ag  0.00000000  10.00000000  26.00000000
Ag  2.00000000  8.00000000  26.00000000
Ag  4.00000000  8.00000000  24.00000000
Ag  6.00000000  10.00000000  24.00000000
Ag  4.00000000  10.00000000  26.00000000
Ag  6.00000000  8.00000000  26.00000000
Ag  8.00000000  8.00000000  24.00000000
Ag  10.00000000  10.00000000  24.00000000
Ag  8.00000000  10.00000000  26.00000000
Ag  10.00000000  8.00000000  26.00000000
Ag  12.00000000  8.00000000  24.00000000
Ag  14.00000000  10.00000000  24.00000000
Ag  12.00000000  10.00000000  26.00000000
Ag  14.00000000  8.00000000  26.00000000
Ag  16.00000000  8.00000000  24.00000000
Ag  18.00000000  10.00000000  24.00000000
Ag  16.00000000  10.00000000  26.00000000
Ag  18.00000000  8.00000000  26.00000000
Ag  20.00000000  8.00000000  24.00000000
Ag  22.00000000  10.00000000  24.00000000
Ag  20.00000000  10.00000000  26.00000000
Ag  22.00000000  8.00000000  26.00000000
Ag  24.00000000  8.00000000  24.00000000
Ag  26.00000000  10.00000000  24.00000000
Ag  24.00000000  10.00000000  26.00000000
Ag  26.00000000  8.00000000  26.00000000
Ag  28.00000000  8.00000000  24.00000000
Ag  30.00000000  10.00000000  24.00000000
Ag  28.00000000  10.00000000  26.00000000
Ag  30.00000000  8.00000000  26.00000000
Ag  32.00000000  8.00000000  24.00000000
Ag  34.00000000  10.00000000  24.00000000
Ag  32.00000000  10.00000000  26.00000000
Ag  34.00000000  8.00000000  26.00000000
Ag  36.00000000  8.00000000  24.00000000
Ag  38.00000000  10.00000000  24.00000000
Ag  36.00000000  10.00000000  26.00000000
Ag  38.00000000  8.00000000  26.00000000
Ag  0.00000000  12.00000000  24.00000000
Ag  2.00000000  14.00000000  24.00000000
Ag  0.00000000  14.00000000  26.00000000
Ag  2.00000000  12.00000000  26.00000000
Ag  4.00000000  12.00000000  24.00000000
Ag  6.00000000  14.00000000  24.00000000
Ag  4.00000000  14.00000000  26.00000000
Ag  6.00000000  12.00000000  26.00000000
Ag  8.00000000  12.00000000  24.00000000
Ag  10.00000000  14.00000000  24.00000000
Ag  8.00000000  14.00000000  26.00000000
Ag  10.00000000  12.00000000  26.00000000
Ag  12.00000000  12.00000000  24.00000000
Ag  14.00000000  14.00000000  24.00000000
Ag  12.00000000  14.00000000  26.00000000
Ag  14.00000000  12.00000000  26.00000000
Ag  16.00000000  12.00000000  24.00000000
Ag  18.00000000  14.00000000  24.00000000
Ag  16.00000000  14.00000000  26.00000000
Ag  18.00000000  12.00000000  26.00000000
Ag  20.00000000  12.00000000  24.00000000
Ag  22.00000000  14.00000000  24.00000000
Ag  20.00000000  14.00000000  26.00000000
Ag  22.00000000  12.00000000  26.00000000
Ag  24.00000000  12.00000000  24.00000000
Ag  26.00000000  14.00000000  24.00000000
Ag  24.00000000  14.00000000  26.00000000
Ag  26.00000000  12.00000000  26.00000000
Ag  28.00000000  12.00000000  24.00000000
Ag  30.00000000  14.00000000  24.00000000
Ag  28.00000000  14.00000000  26.00000000
Ag  30.00000000  12.00000000  26.00000000
Ag  32.00000000  12.00000000  24.00000000
Ag  34.00000000  14.00000000  24.00000000
Ag  32.00000000  14.00000000  26.00000000
Ag  34.00000000  12.00000000  26.00000000
Ag  36.00000000  12.00000000  24.00000000
Ag  38.00000000  14.00000000  24.00000000
Ag  36.00000000  14.00000000  26.00000000
Ag  38.00000000  12.00000000  26.00000000
Ag  0.00000000  16.00000000  24.00000000
Ag  2.00000000  18.00000000  24.00000000
Ag  0.00000000  18.00000000  26.00000000
Ag  2.00000000  16.00000000  26.00000000
Ag  4.00000000  16.00000000  24.00000000
Ag  6.00000000  18.00000000  24.00000000
Ag  4.00000000  18.00000000  26.00000000
Ag  6.00000000  16.00000000  26.00000000
Ag  8.00000000  16.00000000  24.00000000
Ag  10.00000000  18.00000000  24.00000000
Ag  8.00000000  18.00000000  26.00000000
Ag  10.00000000  16.00000000  26.00000000
Ag  12.00000000  16.00000000  24.00000000
Ag  14.00000000  18.00000000  24.00000000
Ag  12.00000000  18.00000000  26.00000000
Ag  14.00000000  16.00000000  26.00000000
Ag  16.00000000  16.00000000  24.00000000
Ag  18.00000000  18.00000000  24.00000000
Ag  16.00000000  18.00000000  26.00000000
Ag  18.00000000  16.00000000  26.00000000
Ag  20.00000000  16.00000000  24.00000000
Ag  22.00000000  18.00000000  24.00000000
Ag  20.00000000  18.00000000  26.00000000
Ag  22.00000000  16.00000000  26.00000000
Ag  24.00000000  16.00000000  24.00000000
Ag  26.00000000  18.00000000  24.00000000
Ag  24.00000000  18.00000000  26.00000000
Ag  26.00000000  16.00000000  26.00000000
Ag  28.00000000  16.00000000  24.00000000
Ag  30.00000000  18.00000000  24.00000000
Ag  28.00000000  18.00000000  26.00000000
Ag  30.00000000  16.00000000  26.00000000
Ag  32.00000000  16.00000000  24.00000000
Ag  34.00000000  18.00000000  24.00000000
Ag  32.00000000  18.00000000  26.00000000
Ag  34.00000000  16.00000000  26.00000000
Ag  36.00000000  16.00000000  24.00000000
Ag  38.00000000  18.00000000  24.00000000
Ag  36.00000000  18.00000000  26.00000000
Ag  38.00000000  16.00000000  26.00000000
Ag  0.00000000  20.00000000  24.00000000
Ag  2.00000000  22.00000000  24.00000000
Ag  0.00000000  22.00000000  26.00000000
Ag  2.00000000  20.00000000  26.00000000
Ag  4.00000000  20.00000000  24.00000000
Ag  6.00000000  22.00000000  24.00000000
Ag  4.00000000  22.00000000  26.00000000
Ag  6.00000000  20.00000000  26.00000000
Ag  8.00000000  20.00000000  24.00000000
Ag  10.00000000  22.00000000  24.00000000
Ag  8.00000000  22.00000000  26.00000000
Ag  10.00000000  20.00000000  26.00000000
Ag  12.00000000  20.00000000  24.00000000
Ag  14.00000000  22.00000000  24.00000000
Ag  12.00000000  22.00000000  26.00000000
Ag  14.00000000  20.00000000  26.00000000
Ag  16.00000000  20.00000000  24.00000000
Ag  18.00000000  22.00000000  24.00000000
Ag  16.00000000  22.00000000  26.00000000
Ag  18.00000000  20.00000000  26.00000000
Ag  20.00000000  20.00000000  24.00000000
Ag  22.00000000  22.00000000  24.00000000
Ag  20.00000000  22.00000000  26.00000000
Ag  22.00000000  20.00000000  26.00000000
Ag  24.00000000  20.00000000  24.00000000
Ag  26.00000000  22.00000000  24.00000000
Ag  24.00000000  22.00000000  26.00000000
Ag  26.00000000  20.00000000  26.00000000
Ag  28.00000000  20.00000000  24.00000000
Ag  30.00000000  22.00000000  24.00000000
Ag  28.00000000  22.00000000  26.00000000
Ag  30.00000000  20.00000000  26.00000000
Ag  32.00000000  20.00000000  24.00000000
Ag  34.00000000  22.00000000  24.00000000
Ag  32.00000000  22.00000000  26.00000000
Ag  34.00000000  20.00000000  26.00000000
Ag  36.00000000  20.00000000  24.00000000
Ag  38.00000000  22.00000000  24.00000000
Ag  36.00000000  22.00000000  26.00000000
Ag  38.00000000  20.00000000  26.00000000
Ag  0.00000000  24.00000000  24.00000000
Ag  2.00000000  26.00000000  24.00000000
Ag  0.00000000  26.00000000  26.00000000
Ag  2.00000000  24.00000000  26.00000000
Ag  4.00000000  24.00000000  24.00000000
Ag  6.00000000  26.00000000  24.00000000
Ag  4.00000000  26.00000000  26.00000000
Ag  6.00000000  24.00000000  26.00000000
Ag  8.00000000  24.00000000  24.00000000
Ag  10.00000000  26.00000000  24.00000000
Ag  8.00000000  26.00000000  26.00000000
Ag  10.00000000  24.00000000  26.00000000
Ag  12.00000000  24.00000000  24.00000000
Ag  14.00000000  26.00000000  24.00000000
Ag  12.00000000  26.00000000  26.00000000
Ag  14.00000000  24.00000000  26.00000000
Ag  16.00000000  24.00000000  24.00000000
Ag  18.00000000  26.00000000  24.00000000
Ag  16.00000000  26.00000000  26.00000000
Ag  18.00000000  24.00000000  26.00000000
Ag  20.00000000  24.00000000  24.00000000
Ag  22.00000000  26.00000000  24.00000000
Ag  20.00000000  26.00000000  26.00000000
Ag  22.00000000  24.00000000  26.00000000
Ag  24.00000000  24.00000000  24.00000000
Ag  26.00000000  26.00000000  24.00000000
Ag  24.00000000  26.00000000  26.00000000
Ag  26.00000000  24.00000000  26.00000000
Ag  28.00000000  24.00000000  24.00000000
Ag  30.00000000  26.00000000  24.00000000
Ag  28.00000000  26.00000000  26.00000000
Ag  30.00000000  24.00000000  26.00000000
Ag  32.00000000  24.00000000  24.00000000
Ag  34.00000000  26.00000000  24.00000000
Ag  32.00000000  26.00000000  26.00000000
Ag  34.00000000  24.00000000  26.00000000
Ag  36.00000000  24.00000000  24.00000000
Ag  38.00000000  26.00000000  24.00000000
Ag  36.00000000  26.00000000  26.00000000
Ag  38.00000000  24.00000000  26.00000000
Ag  0.00000000  28.00000000  24.00000000
Ag  2.00000000  30.00000000  24.00000000
Ag  0.00000000  30.00000000  26.00000000
Ag  2.00000000  28.00000000  26.00000000
Ag  4.00000000  28.00000000  24.00000000
Ag  6.00000000  30.00000000  24.00000000
Ag  4.00000000  30.00000000  26.00000000
Ag  6.00000000  28.00000000  26.00000000
Ag  8.00000000  28.00000000  24.00000000
Ag  10.00000000  30.00000000  24.00000000
Ag  8.00000000  30.00000000  26.00000000
Ag  10.00000000  28.00000000  26.00000000
Ag  12.00000000  28.00000000  24.00000000
Ag  14.00000000  30.00000000  24.00000000
Ag  12.00000000  30.00000000  26.00000000
Ag  14.00000000  28.00000000  26.00000000
Ag  16.00000000  28.00000000  24.00000000
Ag  18.00000000  30.00000000  24.00000000
Ag  16.00000000  30.00000000  26.00000000
Ag  18.00000000  28.00000000  26.00000000
Ag  20.00000000  28.00000000  24.00000000
Ag  22.00000000  30.00000000  24.00000000
Ag  20.00000000  30.00000000  26.00000000
Ag  22.00000000  28.00000000  26.00000000
Ag  24.00000000  28.00000000  24.00000000
Ag  26.00000000  30.00000000  24.00000000
Ag  24.00000000  30.00000000  26.00000000
Ag  26.00000000  28.00000000  26.00000000
Ag  28.00000000  28.00000000  24.00000000
Ag  30.00000000  30.00000000  24.00000000
Ag  28.00000000  30.00000000  26.00000000
Ag  30.00000000  28.00000000  26.00000000
Ag  32.00000000  28.00000000  24.00000000
Ag  34.00000000  30.00000000  24.00000000
Ag  32.00000000  30.00000000  26.00000000
Ag  34.00000000  28.00000000  26.00000000
Ag  36.00000000  28.00000000  24.00000000
Ag  38.00000000  30.00000000  24.00000000
Ag  36.00000000  30.00000000  26.00000000
Ag  38.00000000  28.00000000  26.00000000
Ag  0.00000000  32.00000000  24.00000000
Ag  2.00000000  34.00000000  24.00000000
Ag  0.00000000  34.00000000  26.00000000
Ag  2.00000000  32.00000000  26.00000000
Ag  4.00000000  32.00000000  24.00000000
Ag  6.00000000  34.00000000  24.00000000
Ag  4.00000000  34.00000000  26.00000000
Ag  6.00000000  32.00000000  26.00000000
Ag  8.00000000  32.00000000  24.00000000
Ag  10.00000000  34.00000000  24.00000000
Ag  8.00000000  34.00000000  26.00000000
Ag  10.00000000  32.00000000  26.00000000
Ag  12.00000000  32.00000000  24.00000000
Ag  14.00000000  34.00000000  24.00000000
Ag  12.00000000  34.00000000  26.00000000
Ag  14.00000000  32.00000000  26.00000000
Ag  16.00000000  32.00000000  24.00000000
Ag  18.00000000  34.00000000  24.00000000
Ag  16.00000000  34.00000000  26.00000000
Ag  18.00000000  32.00000000  26.00000000
Ag  20.00000000  32.00000000  24.00000000
Ag  22.00000000  34.00000000  24.00000000
Ag  20.00000000  34.00000000  26.00000000
Ag  22.00000000  32.00000000  26.00000000
Ag  24.00000000  32.00000000  24.00000000
Ag  26.00000000  34.00000000  24.00000000
Ag  24.00000000  34.00000000  26.00000000
Ag  26.00000000  32.00000000  26.00000000
Ag  28.00000000  32.00000000  24.00000000
Ag  30.00000000  34.00000000  24.00000000
Ag  28.00000000  34.00000000  26.00000000
Ag  30.00000000  32.00000000  26.00000000
Ag  32.00000000  32.00000000  24.00000000
Ag  34.00000000  34.00000000  24.00000000
Ag  32.00000000  34.00000000  26.00000000
Ag  34.00000000  32.00000000  26.00000000
Ag  36.00000000  32.00000000  24.00000000
Ag  38.00000000  34.00000000  24.00000000
Ag  36.00000000  34.00000000  26.00000000
Ag  38.00000000  32.00000000  26.00000000
Ag  0.00000000  36.00000000  24.00000000
Ag  2.00000000  38.00000000  24.00000000
Ag  0.00000000  38.00000000  26.00000000
Ag  2.00000000  36.00000000  26.00000000
Ag  4.00000000  36.00000000  24.00000000
Ag  6.00000000  38.00000000  24.00000000
Ag  4.00000000  38.00000000  26.00000000
Ag  6.00000000  36.00000000  26.00000000
Ag  8.00000000  36.00000000  24.00000000
Ag  10.00000000  38.00000000  24.00000000
Ag  8.00000000  38.00000000  26.00000000
Ag  10.00000000  36.00000000  26.00000000
Ag  12.00000000  36.00000000  24.00000000
Ag  14.00000000  38.00000000  24.00000000
Ag  12.00000000  38.00000000  26.00000000
Ag  14.00000000  36.00000000  26.00000000
Ag  16.00000000  36.00000000  24.00000000
Ag  18.00000000  38.00000000  24.00000000
Ag  16.00000000  38.00000000  26.00000000
Ag  18.00000000  36.00000000  26.00000000
Ag  20.00000000  36.00000000  24.00000000
Ag  22.00000000  38.00000000  24.00000000
Ag  20.00000000  38.00000000  26.00000000
Ag  22.00000000  36.00000000  26.00000000
Ag  24.00000000  36.00000000  24.00000000
Ag  26.00000000  38.00000000  24.00000000
Ag  24.00000000  38.00000000  26.00000000
Ag  26.00000000  36.00000000  26.00000000
Ag  28.00000000  36.00000000  24.00000000
Ag  30.00000000  38.00000000  24.00000000
Ag  28.00000000  38.00000000  26.00000000
Ag  30.00000000  36.00000000  26.00000000
Ag  32.00000000  36.00000000  24.00000000
Ag  34.00000000  38.00000000  24.00000000
Ag  32.00000000  38.00000000  26.00000000
Ag  34.00000000  36.00000000  26.00000000
Ag  36.00000000  36.00000000  24.00000000
Ag  38.00000000  38.00000000  24.00000000
Ag  36.00000000  38.00000000  26.00000000
Ag  38.00000000  36.00000000  26.00000000
Ag  0.00000000  0.00000000  28.00000000
Ag  2.00000000  2.00000000  28.00000000
Ag  0.00000000  2.00000000  30.00000000
Ag  2.00000000  0.00000000  30.00000000
Ag  4.00000000  0.00000000  28.00000000
Ag  6.00000000  2.00000000  28.00000000
Ag  4.00000000  2.00000000  30.00000000
Ag  6.00000000  0.00000000  30.00000000
Ag  8.00000000  0.00000000  28.00000000
Ag  10.00000000  2.00000000  28.00000000
Ag  8.00000000  2.00000000  30.00000000
Ag  10.00000000  0.00000000  30.00000000
Ag  12.00000000  0.00000000  28.00000000
Ag  14.00000000  2.00000000  28.00000000
Ag  12.00000000  2.00000000  30.00000000
Ag  14.00000000  0.00000000  30.00000000
Ag  16.00000000  0.00000000  28.00000000
Ag  18.00000000  2.00000000  28.00000000
Ag  16.00000000  2.00000000  30.00000000
Ag  18.00000000  0.00000000  30.00000000
Ag  20.00000000  0.00000000  28.00000000
Ag  22.00000000  2.00000000  28.00000000
Ag  20.00000000  2.00000000  30.00000000
Ag  22.00000000  0.00000000  30.00000000
Ag  24.00000000  0.00000000  28.00000000
Ag  26.00000000  2.00000000  28.00000000
Ag  24.00000000  2.00000000  30.00000000
Ag  26.00000000  0.00000000  30.00000000
Ag  28.00000000  0.00000000  28.00000000
Ag  30.00000000  2.00000000  28.00000000
Ag  28.00000000  2.00000000  30.00000000
Ag  30.00000000  0.00000000  30.00000000
Ag  32.00000000  0.00000000  28.00000000
Ag  34.00000000  2.00000000  28.00000000
Ag  32.00000000  2.00000000  30.00000000
Ag  34.00000000  0.00000000  30.00000000
Ag  36.00000000  0.00000000  28.00000000
Ag  38.00000000  2.00000000  28.00000000
Ag  36.00000000  2.00000000  30.00000000
Ag  38.00000000  0.00000000  30.00000000
Ag  0.00000000  4.00000000  28.00000000
Ag  2.00000000  6.00000000  28.00000000
Ag  0.00000000  6.00000000  30.00000000
Ag  2.00000000  4.00000000  30.00000000
Ag  4.00000000  4.00000000  28.00000000
Ag  6.00000000  6.00000000  28.00000000
Ag  4.00000000  6.00000000  30.00000000
Ag  6.00000000  4.00000000  30.00000000
Ag  8.00000000  4.00000000  28.00000000
Ag  10.00000000  6.00000000  28.00000000
Ag  8.00000000  6.00000000  30.00000000
Ag  10.00000000  4.00000000  30.00000000
Ag  12.00000000  4.00000000  28.00000000
Ag  14.00000000  6.00000000  28.00000000
Ag  12.00000000  6.00000000  30.00000000
Ag  14.00000000  4.00000000  30.00000000
Ag  16.00000000  4.00000000  28.00000000
Ag  18.00000000  6.00000000  28.00000000
Ag  16.00000000  6.00000000  30.00000000
Ag  18.00000000  4.00000000  30.00000000
Ag  20.00000000  4.00000000  28.00000000
Ag  22.00000000  6.00000000  28.00000000
Ag  20.00000000  6.00000000  30.00000000
Ag  22.00000000  4.00000000  30.00000000
Ag  24.00000000  4.00000000  28.00000000
Ag  26.00000000  6.00000000  28.00000000
Ag  24.00000000  6.00000000  30.00000000
Ag  26.00000000  4.00000000  30.00000000
Ag  28.00000000  4.00000000  28.00000000
Ag  30.00000000  6.00000000  28.00000000
Ag  28.00000000  6.00000000  30.00000000
Ag  30.00000000  4.00000000  30.00000000
Ag  32.00000000  4.00000000  28.00000000
Ag  34.00000000  6.00000000  28.00000000
Ag  32.00000000  6.00000000  30.00000000
Ag  34.00000000  4.00000000  30.00000000
Ag  36.00000000  4.00000000  28.00000000
Ag  38.00000000  6.00000000  28.00000000
Ag  36.00000000  6.00000000  30.00000000
Ag  38.00000000  4.00000000  30.00000000
Ag  0.00000000  8.00000000  28.00000000
Ag  2.00000000  10.00000000  28.00000000
Ag  0.00000000  10.00000000  30.00000000
Ag  2.00000000  8.00000000  30.00000000
Ag  4.00000000  8.00000000  28.00000000
Ag  6.00000000  10.00000000  28.00000000
Ag  4.00000000  10.00000000  30.00000000
Ag  6.00000000  8.00000000  30.00000000
Ag  8.00000000  8.00000000  28.00000000
Ag  10.00000000  10.00000000  28.00000000
Ag  8.00000000  10.00000000  30.00000000
Ag  10.00000000  8.00000000  30.00000000
Ag  12.00000000  8.00000000  28.00000000
Ag  14.00000000  10.00000000  28.00000000
Ag  12.00000000  10.00000000  30.00000000
Ag  14.00000000  8.00000000  30.00000000
Ag  16.00000000  8.00000000  28.00000000
Ag  18.00000000  10.00000000  28.00000000
Ag  16.00000000  10.00000000  30.00000000
Ag  18.00000000  8.00000000  30.00000000
Ag  20.00000000  8.00000000  28.00000000
Ag  22.00000000  10.00000000  28.00000000
Ag  20.00000000  10.00000000  30.00000000
Ag  22.00000000  8.00000000  30.00000000
Ag  24.00000000  8.00000000  28.00000000
Ag  26.00000000  10.00000000  28.00000000
Ag  24.00000000  10.00000000  30.00000000
Ag  26.00000000  8.00000000  30.00000000
Ag  28.00000000  8.00000000  28.00000000
Ag  30.00000000  10.00000000  28.00000000
Ag  28.00000000  10.00000000  30.00000000
Ag  30.00000000  8.00000000  30.00000000
Ag  32.00000000  8.00000000  28.00000000
Ag  34.00000000  10.00000000  28.00000000
Ag  32.00000000  10.00000000  30.00000000
Ag  34.00000000  8.00000000  30.00000000
Ag  36.00000000  8.00000000  28.00000000
Ag  38.00000000  10.00000000  28.00000000
Ag  36.00000000  10.00000000  30.00000000
Ag  38.00000000  8.00000000  30.00000000
Ag  0.00000000  12.00000000  28.00000000
Ag  2.00000000  14.00000000  28.00000000
Ag  0.00000000  14.00000000  30.00000000
Ag  2.00000000  12.00000000  30.00000000
Ag  4.00000000  12.00000000  28.00000000
Ag  6.00000000  14.00000000  28.00000000
Ag  4.00000000  14.00000000  30.00000000
Ag  6.00000000  12.00000000  30.00000000
Ag  8.00000000  12.00000000  28.00000000
Ag  10.00000000  14.00000000  28.00000000
Ag  8.00000000  14.00000000  30.00000000
Ag  10.00000000  12.00000000  30.00000000
Ag  12.00000000  12.00000000  28.00000000
Ag  14.00000000  14.00000000  28.00000000
Ag  12.00000000  14.00000000  30.00000000
Ag  14.00000000  12.00000000  30.00000000
Ag  16.00000000  12.00000000  28.00000000
Ag  18.00000000  14.00000000  28.00000000
Ag  16.00000000  14.00000000  30.00000000
Ag  18.00000000  12.00000000  30.00000000
Ag  20.00000000  12.00000000  28.00000000
Ag  22.00000000  14.00000000  28.00000000
Ag  20.00000000  14.00000000  30.00000000
Ag  22.00000000  12.00000000  30.00000000
Ag  24.00000000  12.00000000  28.00000000
Ag  26.00000000  14.00000000  28.00000000
Ag  24.00000000  14.00000000  30.00000000
Ag  26.00000000  12.00000000  30.00000000
Ag  28.00000000  12.00000000  28.00000000
Ag  30.00000000  14.00000000  28.00000000
Ag  28.00000000  14.00000000  30.00000000
Ag  30.00000000  12.00000000  30.00000000
Ag  32.00000000  12.00000000  28.00000000
Ag  34.00000000  14.00000000  28.00000000
Ag  32.00000000  14.00000000  30.00000000
Ag  34.00000000  12.00000000  30.00000000
Ag  36.00000000  12.00000000  28.00000000
Ag  38.00000000  14.00000000  28.00000000
Ag  36.00000000  14.00000000  30.00000000
Ag  38.00000000  12.00000000  30.00000000
Ag  0.00000000  16.00000000  28.00000000
Ag  2.00000000  18.00000000  28.00000000
Ag  0.00000000  18.00000000  30.00000000
Ag  2.00000000  16.00000000  30.00000000
Ag  4.00000000  16.00000000  28.00000000
Ag  6.00000000  18.00000000  28.00000000
Ag  4.00000000  18.00000000  30.00000000
Ag  6.00000000  16.00000000  30.00000000
Ag  8.00000000  16.00000000  28.00000000
Ag  10.00000000  18.00000000  28.00000000
Ag  8.00000000  18.00000000  30.00000000
Ag  10.00000000  16.00000000  30.00000000
Ag  12.00000000  16.00000000  28.00000000
Ag  14.00000000  18.00000000  28.00000000
Ag  12.00000000  18.00000000  30.00000000
Ag  14.00000000  16.00000000  30.00000000
Ag  16.00000000  16.00000000  28.00000000
Ag  18.00000000  18.00000000  28.00000000
Ag  16.00000000  18.00000000  30.00000000
Ag  18.00000000  16.00000000  30.00000000
Ag  20.00000000  16.00000000  28.00000000
Ag  22.00000000  18.00000000  28.00000000
Ag  20.00000000  18.00000000  30.00000000
Ag  22.00000000  16.00000000  30.00000000
Ag  24.00000000  16.00000000  28.00000000
Ag  26.00000000  18.00000000  28.00000000
Ag  24.00000000  18.00000000  30.00000000
Ag  26.00000000  16.00000000  30.00000000
Ag  28.00000000  16.00000000  28.00000000
Ag  30.00000000  18.00000000  28.00000000
Ag  28.00000000  18.00000000  30.00000000
Ag  30.00000000  16.00000000  30.00000000
Ag  32.00000000  16.00000000  28.00000000
Ag  34.00000000  18.00000000  28.00000000
Ag  32.00000000  18.00000000  30.00000000
Ag  34.00000000  16.00000000  30.00000000
Ag  36.00000000  16.00000000  28.00000000
Ag  38.00000000  18.00000000  28.00000000
Ag  36.00000000  18.00000000  30.00000000
Ag  38.00000000  16.00000000  30.00000000
Ag  0.00000000  20.00000000  28.00000000
Ag  2.00000000  22.00000000  28.00000000
Ag  0.00000000  22.00000000  30.00000000
Ag  2.00000000  20.00000000  30.00000000
Ag  4.00000000  20.00000000  28.00000000
Ag  6.00000000  22.00000000  28.00000000
Ag  4.00000000  22.00000000  30.00000000
Ag  6.00000000  20.00000000  30.00000000
Ag  8.00000000  20.00000000  28.00000000
Ag  10.00000000  22.00000000  28.00000000
Ag  8.00000000  22.00000000  30.00000000
Ag  10.00000000  20.00000000  30.00000000
Ag  12.00000000  20.00000000  28.00000000
Ag  14.00000000  22.00000000  28.00000000
Ag  12.00000000  22.00000000  30.00000000
Ag  14.00000000  20.00000000  30.00000000
Ag  16.00000000  20.00000000  28.00000000
Ag  18.00000000  22.00000000  28.00000000
Ag  16.00000000  22.00000000  30.00000000
Ag  18.00000000  20.00000000  30.00000000
Ag  20.00000000  20.00000000  28.00000000
Ag  22.00000000  22.00000000  28.00000000
Ag  20.00000000  22.00000000  30.00000000
Ag  22.00000000  20.00000000  30.00000000
Ag  24.00000000  20.00000000  28.00000000
Ag  26.00000000  22.00000000  28.00000000
Ag  24.00000000  22.00000000  30.00000000
Ag  26.00000000  20.00000000  30.00000000
Ag  28.00000000  20.00000000  28.00000000
Ag  30.00000000  22.00000000  28.00000000
Ag  28.00000000  22.00000000  30.00000000
Ag  30.00000000  20.00000000  30.00000000
Ag  32.00000000  20.00000000  28.00000000
Ag  34.00000000  22.00000000  28.00000000
Ag  32.00000000  22.00000000  30.00000000
Ag  34.00000000  20.00000000  30.00000000
Ag  36.00000000  20.00000000  28.00000000
Ag  38.00000000  22.00000000  28.00000000
Ag  36.00000000  22.00000000  30.00000000
Ag  38.00000000  20.00000000  30.00000000
Ag  0.00000000  24.00000000  28.00000000
Ag  2.00000000  26.00000000  28.00000000
Ag  0.00000000  26.00000000  30.00000000
Ag  2.00000000  24.00000000  30.00000000
Ag  4.00000000  24.00000000  28.00000000
Ag  6.00000000  26.00000000  28.00000000
Ag  4.00000000  26.00000000  30.00000000
Ag  6.00000000  24.00000000  30.00000000
Ag  8.00000000  24.00000000  28.00000000
Ag  10.00000000  26.00000000  28.00000000
Ag  8.00000000  26.00000000  30.00000000
Ag  10.00000000  24.00000000  30.00000000
Ag  12.00000000  24.00000000  28.00000000
Ag  14.00000000  26.00000000  28.00000000
Ag  12.00000000  26.00000000  30.00000000
Ag  14.00000000  24.00000000  30.00000000
Ag  16.00000000  24.00000000  28.00000000
Ag  18.00000000  26.00000000  28.00000000
Ag  16.00000000  26.00000000  30.00000000
Ag  18.00000000  24.00000000  30.00000000
Ag  20.00000000  24.00000000  28.00000000
Ag  22.00000000  26.00000000  28.00000000
Ag  20.00000000  26.00000000  30.00000000
Ag  22.00000000  24.00000000  30.00000000
Ag  24.00000000  24.00000000  28.00000000
Ag  26.00000000  26.00000000  28.00000000
Ag  24.00000000  26.00000000  30.00000000
Ag  26.00000000  24.00000000  30.00000000
Ag  28.00000000  24.00000000  28.00000000
Ag  30.00000000  26.00000000  28.00000000
Ag  28.00000000  26.00000000  30.00000000
Ag  30.00000000  24.00000000  30.00000000
Ag  32.00000000  24.00000000  28.00000000
Ag  34.00000000  26.00000000  28.00000000
Ag  32.00000000  26.00000000  30.00000000
Ag  34.00000000  24.00000000  30.00000000
Ag  36.00000000  24.00000000  28.00000000
Ag  38.00000000  26.00000000  28.00000000
Ag  36.00000000  26.00000000  30.00000000
Ag  38.00000000  24.00000000  30.00000000
Ag  0.00000000  28.00000000  28.00000000
Ag  2.00000000  30.00000000  28.00000000
Ag  0.00000000  30.00000000  30.00000000
Ag  2.00000000  28.00000000  30.00000000
Ag  4.00000000  28.00000000  28.00000000
Ag  6.00000000  30.00000000  28.00000000
Ag  4.00000000  30.00000000  30.00000000
Ag  6.00000000  28.00000000  30.00000000
Ag  8.00000000  28.00000000  28.00000000
Ag  10.00000000  30.00000000  28.00000000
Ag  8.00000000  30.00000000  30.00000000
Ag  10.00000000  28.00000000  30.00000000
Ag  12.00000000  28.00000000  28.00000000
Ag  14.00000000  30.00000000  28.00000000
Ag  12.00000000  30.00000000  30.00000000
Ag  14.00000000  28.00000000  30.00000000
Ag  16.00000000  28.00000000  28.00000000
Ag  18.00000000  30.00000000  28.00000000
Ag  16.00000000  30.00000000  30.00000000
Ag  18.00000000  28.00000000  30.00000000
Ag  20.00000000  28.00000000  28.00000000
Ag  22.00000000  30.00000000  28.00000000
Ag  20.00000000  30.00000000  30.00000000
Ag  22.00000000  28.00000000  30.00000000
Ag  24.00000000  28.00000000  28.00000000
Ag  26.00000000  30.00000000  28.00000000
Ag  24.00000000  30.00000000  30.00000000
Ag  26.00000000  28.00000000  30.00000000
Ag  28.00000000  28.00000000  28.00000000
Ag  30.00000000  30.00000000  28.00000000
Ag  28.00000000  30.00000000  30.00000000
Ag  30.00000000  28.00000000  30.00000000
Ag  32.00000000  28.00000000  28.00000000
Ag  34.00000000  30.00000000  28.00000000
Ag  32.00000000  30.00000000  30.00000000
Ag  34.00000000  28.00000000  30.00000000
Ag  36.00000000  28.00000000  28.00000000
Ag  38.00000000  30.00000000  28.00000000
Ag  36.00000000  30.00000000  30.00000000
Ag  38.00000000  28.00000000  30.00000000
Ag  0.00000000  32.00000000  28.00000000
Ag  2.00000000  34.00000000  28.00000000
Ag  0.00000000  34.00000000  30.00000000
Ag  2.00000000  32.00000000  30.00000000
Ag  4.00000000  32.00000000  28.00000000
Ag  6.00000000  34.00000000  28.00000000
Ag  4.00000000  34.00000000  30.00000000
Ag  6.00000000  32.00000000  30.00000000
Ag  8.00000000  32.00000000  28.00000000
Ag  10.00000000  34.00000000  28.00000000
Ag  8.00000000  34.00000000  30.00000000
Ag  10.00000000  32.00000000  30.00000000
Ag  12.00000000  32.00000000  28.00000000
Ag  14.00000000  34.00000000  28.00000000
Ag  12.00000000  34.00000000  30.00000000
Ag  14.00000000  32.00000000  30.00000000
Ag  16.00000000  32.00000000  28.00000000
Ag  18.00000000  34.00000000  28.00000000
Ag  16.00000000  34.00000000  30.00000000
Ag  18.00000000  32.00000000  30.00000000
Ag  20.00000000  32.00000000  28.00000000
Ag  22.00000000  34.00000000  28.00000000
Ag  20.00000000  34.00000000  30.00000000
Ag  22.00000000  32.00000000  30.00000000
Ag  24.00000000  32.00000000  28.00000000
Ag  26.00000000  34.00000000  28.00000000
Ag  24.00000000  34.00000000  30.00000000
Ag  26.00000000  32.00000000  30.00000000
Ag  28.00000000  32.00000000  28.00000000
Ag  30.00000000  34.00000000  28.00000000
Ag  28.00000000  34.00000000  30.00000000
Ag  30.00000000  32.00000000  30.00000000
Ag  32.00000000  32.00000000  28.00000000
Ag  34.00000000  34.00000000  28.00000000
Ag  32.00000000  34.00000000  30.00000000
Ag  34.00000000  32.00000000  30.00000000
Ag  36.00000000  32.00000000  28.00000000
Ag  38.00000000  34.00000000  28.00000000
Ag  36.00000000  34.00000000  30.00000000
Ag  38.00000000  32.00000000  30.00000000
Ag  0.00000000  36.00000000  28.00000000
Ag  2.00000000  38.00000000  28.00000000
Ag  0.00000000  38.00000000  30.00000000
Ag  2.00000000  36.00000000  30.00000000
Ag  4.00000000  36.00000000  28.00000000
Ag  6.00000000  38.00000000  28.00000000
Ag  4.00000000  38.00000000  30.00000000
Ag  6.00000000  36.00000000  30.00000000
Ag  8.00000000  36.00000000  28.00000000
Ag  10.00000000  38.00000000  28.00000000
Ag  8.00000000  38.00000000  30.00000000
Ag  10.00000000  36.00000000  30.00000000
Ag  12.00000000  36.00000000  28.00000000
Ag  14.00000000  38.00000000  28.00000000
Ag  12.00000000  38.00000000  30.00000000
Ag  14.00000000  36.00000000  30.00000000
Ag  16.00000000  36.00000000  28.00000000
Ag  18.00000000  38.00000000  28.00000000
Ag  16.00000000  38.00000000  30.00000000
Ag  18.00000000  36.00000000  30.00000000
Ag  20.00000000  36.00000000  28.00000000
Ag  22.00000000  38.00000000  28.00000000
Ag  20.00000000  38.00000000  30.00000000
Ag  22.00000000  36.00000000  30.00000000
Ag  24.00000000  36.00000000  28.00000000
Ag  26.00000000  38.00000000  28.00000000
Ag  24.00000000  38.00000000  30.00000000
Ag  26.00000000  36.00000000  30.00000000
Ag  28.00000000  36.00000000  28.00000000
Ag  30.00000000  38.00000000  28.00000000
Ag  28.00000000  38.00000000  30.00000000
Ag  30.00000000  36.00000000  30.00000000
Ag  32.00000000  36.00000000  28.00000000
Ag  34.00000000  38.00000000  28.00000000
Ag  32.00000000  38.00000000  30.00000000
Ag  34.00000000  36.00000000  30.00000000
Ag  36.00000000  36.00000000  28.00000000
Ag  38.00000000  38.00000000  28.00000000
Ag  36.00000000  38.00000000  30.00000000
Ag  38.00000000  36.00000000  30.00000000
Ag  0.00000000  0.00000000  32.00000000
Ag  2.00000000  2.00000000  32.00000000
Ag  0.00000000  2.00000000  34.00000000
Ag  2.00000000  0.00000000  34.00000000
Ag  4.00000000  0.00000000  32.00000000
Ag  6.00000000  2.00000000  32.00000000
Ag  4.00000000  2.00000000  34.00000000
Ag  6.00000000  0.00000000  34.00000000
Ag  8.00000000  0.00000000  32.00000000
Ag  10.00000000  2.00000000  32.00000000
Ag  8.00000000  2.00000000  34.00000000
Ag  10.00000000  0.00000000  34.00000000
Ag  12.00000000  0.00000000  32.00000000
Ag  14.00000000  2.00000000  32.00000000
Ag  12.00000000  2.00000000  34.00000000
Ag  14.00000000  0.00000000  34.00000000
Ag  16.00000000  0.00000000  32.00000000
Ag  18.00000000  2.00000000  32.00000000
Ag  16.00000000  2.00000000  34.00000000
Ag  18.00000000  0.00000000  34.00000000
Ag  20.00000000  0.00000000  32.00000000
Ag  22.00000000  2.00000000  32.00000000
Ag  20.00000000  2.00000000  34.00000000
Ag  22.00000000  0.00000000  34.00000000
Ag  24.00000000  0.00000000  32.00000000
Ag  26.00000000  2.00000000  32.00000000
Ag  24.00000000  2.00000000  34.00000000
Ag  26.00000000  0.00000000  34.00000000
Ag  28.00000000  0.00000000  32.00000000
Ag  30.00000000  2.00000000  32.00000000
Ag  28.00000000  2.00000000  34.00000000
Ag  30.00000000  0.00000000  34.00000000
Ag  32.00000000  0.00000000  32.00000000
Ag  34.00000000  2.00000000  32.00000000
Ag  32.00000000  2.00000000  34.00000000
Ag  34.00000000  0.00000000  34.00000000
Ag  36.00000000  0.00000000  32.00000000
Ag  38.00000000  2.00000000  32.00000000
Ag  36.00000000  2.00000000  34.00000000
Ag  38.00000000  0.00000000  34.00000000
Ag  0.00000000  4.00000000  32.00000000
Ag  2.00000000  6.00000000  32.00000000
Ag  0.00000000  6.00000000  34.00000000
Ag  2.00000000  4.00000000  34.00000000
Ag  4.00000000  4.00000000  32.00000000
Ag  6.00000000  6.00000000  32.00000000
Ag  4.00000000  6.00000000  34.00000000
Ag  6.00000000  4.00000000  34.00000000
Ag  8.00000000  4.00000000  32.00000000
Ag  10.00000000  6.00000000  32.00000000
Ag  8.00000000  6.00000000  34.00000000
Ag  10.00000000  4.00000000  34.00000000
Ag  12.00000000  4.00000000  32.00000000
Ag  14.00000000  6.00000000  32.00000000
Ag  12.00000000  6.00000000  34.00000000
Ag  14.00000000  4.00000000  34.00000000
Ag  16.00000000  4.00000000  32.00000000
Ag  18.00000000  6.00000000  32.00000000
Ag  16.00000000  6.00000000  34.00000000
Ag  18.00000000  4.00000000  34.00000000
Ag  20.00000000  4.00000000  32.00000000
Ag  22.00000000  6.00000000  32.00000000
Ag  20.00000000  6.00000000  34.00000000
Ag  22.00000000  4.00000000  34.00000000
Ag  24.00000000  4.00000000  32.00000000
Ag  26.00000000  6.00000000  32.00000000
Ag  24.00000000  6.00000000  34.00000000
Ag  26.00000000  4.00000000  34.00000000
Ag  28.00000000  4.00000000  32.00000000
Ag  30.00000000  6.00000000  32.00000000
Ag  28.00000000  6.00000000  34.00000000
Ag  30.00000000  4.00000000  34.00000000
Ag  32.00000000  4.00000000  32.00000000
Ag  34.00000000  6.00000000  32.00000000
Ag  32.00000000  6.00000000  34.00000000
Ag  34.00000000  4.00000000  34.00000000
Ag  36.00000000  4.00000000  32.00000000
Ag  38.00000000  6.00000000  32.00000000
Ag  36.00000000  6.00000000  34.00000000
Ag  38.00000000  4.00000000  34.00000000
Ag  0.00000000  8.00000000  32.00000000
Ag  2.00000000  10.00000000  32.00000000
Ag  0.00000000  10.00000000  34.00000000
Ag  2.00000000  8.00000000  34.00000000
Ag  4.00000000  8.00000000  32.00000000
Ag  6.00000000  10.00000000  32.00000000
Ag  4.00000000  10.00000000  34.00000000
Ag  6.00000000  8.00000000  34.00000000
Ag  8.00000000  8.00000000  32.00000000
Ag  10.00000000  10.00000000  32.00000000
Ag  8.00000000  10.00000000  34.00000000
Ag  10.00000000  8.00000000  34.00000000
Ag  12.00000000  8.00000000  32.00000000
Ag  14.00000000  10.00000000  32.00000000
Ag  12.00000000  10.00000000  34.00000000
Ag  14.00000000  8.00000000  34.00000000
Ag  16.00000000  8.00000000  32.00000000
Ag  18.00000000  10.00000000  32.00000000
Ag  16.00000000  10.00000000  34.00000000
Ag  18.00000000  8.00000000  34.00000000
Ag  20.00000000  8.00000000  32.00000000
Ag  22.00000000  10.00000000  32.00000000
Ag  20.00000000  10.00000000  34.00000000
Ag  22.00000000  8.00000000  34.00000000
Ag  24.00000000  8.00000000  32.00000000
Ag  26.00000000  10.00000000  32.00000000
Ag  24.00000000  10.00000000  34.00000000
Ag  26.00000000  8.00000000  34.00000000
Ag  28.00000000  8.00000000  32.00000000
Ag  30.00000000  10.00000000  32.00000000
Ag  28.00000000  10.00000000  34.00000000
Ag  30.00000000  8.00000000  34.00000000
Ag  32.00000000  8.00000000  32.00000000
Ag  34.00000000  10.00000000  32.00000000
Ag  32.00000000  10.00000000  34.00000000
Ag  34.00000000  8.00000000  34.00000000
Ag  36.00000000  8.00000000  32.00000000
Ag  38.00000000  10.00000000  32.00000000
Ag  36.00000000  10.00000000  34.00000000
Ag  38.00000000  8.00000000  34.00000000
Ag  0.00000000  12.00000000  32.00000000
Ag  2.00000000  14.00000000  32.00000000
Ag  0.00000000  14.00000000  34.00000000
Ag  2.00000000  12.00000000  34.00000000
Ag  4.00000000  12.00000000  32.00000000
Ag  6.00000000  14.00000000  32.00000000
Ag  4.00000000  14.00000000  34.00000000
Ag  6.00000000  12.00000000  34.00000000
Ag  8.00000000  12.00000000  32.00000000
Ag  10.00000000  14.00000000  32.00000000
Ag  8.00000000  14.00000000  34.00000000
Ag  10.00000000  12.00000000  34.00000000
Ag  12.00000000  12.00000000  32.00000000
Ag  14.00000000  14.00000000  32.00000000
Ag  12.00000000  14.00000000  34.00000000
Ag  14.00000000  12.00000000  34.00000000
Ag  16.00000000  12.00000000  32.00000000
Ag  18.00000000  14.00000000  32.00000000
Ag  16.00000000  14.00000000  34.00000000
Ag  18.00000000  12.00000000  34.00000000
Ag  20.00000000  12.00000000  32.00000000
Ag  22.00000000  14.00000000  32.00000000
Ag  20.00000000  14.00000000  34.00000000
Ag  22.00000000  12.00000000  34.00000000
Ag  24.00000000  12.00000000  32.00000000
Ag  26.00000000  14.00000000  32.00000000
Ag  24.00000000  14.00000000  34.00000000
Ag  26.00000000  12.00000000  34.00000000
Ag  28.00000000  12.00000000  32.00000000
Ag  30.00000000  14.00000000  32.00000000
Ag  28.00000000  14.00000000  34.00000000
Ag  30.00000000  12.00000000  34.00000000
Ag  32.00000000  12.00000000  32.00000000
Ag  34.00000000  14.00000000  32.00000000
Ag  32.00000000  14.00000000  34.00000000
Ag  34.00000000  12.00000000  34.00000000
Ag  36.00000000  12.00000000  32.00000000
Ag  38.00000000  14.00000000  32.00000000
Ag  36.00000000  14.00000000  34.00000000
Ag  38.00000000  12.00000000  34.00000000
Ag  0.00000000  16.00000000  32.00000000
Ag  2.00000000  18.00000000  32.00000000
Ag  0.00000000  18.00000000  34.00000000
Ag  2.00000000  16.00000000  34.00000000
Ag  4.00000000  16.00000000  32.00000000
Ag  6.00000000  18.00000000  32.00000000
Ag  4.00000000  18.00000000  34.00000000
Ag  6.00000000  16.00000000  34.00000000
Ag  8.00000000  16.00000000  32.00000000
Ag  10.00000000  18.00000000  32.00000000
Ag  8.00000000  18.00000000  34.00000000
Ag  10.00000000  16.00000000  34.00000000
Ag  12.00000000  16.00000000  32.00000000
Ag  14.00000000  18.00000000  32.00000000
Ag  12.00000000  18.00000000  34.00000000
Ag  14.00000000  16.00000000  34.00000000
Ag  16.00000000  16.00000000  32.00000000
Ag  18.00000000  18.00000000  32.00000000
Ag  16.00000000  18.00000000  34.00000000
Ag  18.00000000  16.00000000  34.00000000
Ag  20.00000000  16.00000000  32.00000000
Ag  22.00000000  18.00000000  32.00000000
Ag  20.00000000  18.00000000  34.00000000
Ag  22.00000000  16.00000000  34.00000000
Ag  24.00000000  16.00000000  32.00000000
Ag  26.00000000  18.00000000  32.00000000
Ag  24.00000000  18.00000000  34.00000000
Ag  26.00000000  16.00000000  34.00000000
Ag  28.00000000  16.00000000  32.00000000
Ag  30.00000000  18.00000000  32.00000000
Ag  28.00000000  18.00000000  34.00000000
Ag  30.00000000  16.00000000  34.00000000
Ag  32.00000000  16.00000000  32.00000000
Ag  34.00000000  18.00000000  32.00000000
Ag  32.00000000  18.00000000  34.00000000
Ag  34.00000000  16.00000000  34.00000000
Ag  36.00000000  16.00000000  32.00000000
Ag  38.00000000  18.00000000  32.00000000
Ag  36.00000000  18.00000000  34.00000000
Ag  38.00000000  16.00000000  34.00000000
Ag  0.00000000  20.00000000  32.00000000
Ag  2.00000000  22.00000000  32.00000000
Ag  0.00000000  22.00000000  34.00000000
Ag  2.00000000  20.00000000  34.00000000
Ag  4.00000000  20.00000000  32.00000000
Ag  6.00000000  22.00000000  32.00000000
Ag  4.00000000  22.00000000  34.00000000
Ag  6.00000000  20.00000000  34.00000000
Ag  8.00000000  20.00000000  32.00000000
Ag  10.00000000  22.00000000  32.00000000
Ag  8.00000000  22.00000000  34.00000000
Ag  10.00000000  20.00000000  34.00000000
Ag  12.00000000  20.00000000  32.00000000
Ag  14.00000000  22.00000000  32.00000000
Ag  12.00000000  22.00000000  34.00000000
Ag  14.00000000  20.00000000  34.00000000
Ag  16.00000000  20.00000000  32.00000000
Ag  18.00000000  22.00000000  32.00000000
Ag  16.00000000  22.00000000  34.00000000
Ag  18.00000000  20.00000000  34.00000000
Ag  20.00000000  20.00000000  32.00000000
Ag  22.00000000  22.00000000  32.00000000
Ag  20.00000000  22.00000000  34.00000000
Ag  22.00000000  20.00000000  34.00000000
Ag  24.00000000  20.00000000  32.00000000
Ag  26.00000000  22.00000000  32.00000000
Ag  24.00000000  22.00000000  34.00000000
Ag  26.00000000  20.00000000  34.00000000
Ag  28.00000000  20.00000000  32.00000000
Ag  30.00000000  22.00000000  32.00000000
Ag  28.00000000  22.00000000  34.00000000
Ag  30.00000000  20.00000000  34.00000000
Ag  32.00000000  20.00000000  32.00000000
Ag  34.00000000  22.00000000  32.00000000
Ag  32.00000000  22.00000000  34.00000000
Ag  34.00000000  20.00000000  34.00000000
Ag  36.00000000  20.00000000  32.00000000
Ag  38.00000000  22.00000000  32.00000000
Ag  36.00000000  22.00000000  34.00000000
Ag  38.00000000  20.00000000  34.00000000
Ag  0.00000000  24.00000000  32.00000000
Ag  2.00000000  26.00000000  32.00000000
Ag  0.00000000  26.00000000  34.00000000
Ag  2.00000000  24.00000000  34.00000000
Ag  4.00000000  24.00000000  32.00000000
Ag  6.00000000  26.00000000  32.00000000
Ag  4.00000000  26.00000000  34.00000000
Ag  6.00000000  24.00000000  34.00000000
Ag  8.00000000  24.00000000  32.00000000
Ag  10.00000000  26.00000000  32.00000000
Ag  8.00000000  26.00000000  34.00000000
Ag  10.00000000  24.00000000  34.00000000
Ag  12.00000000  24.00000000  32.00000000
Ag  14.00000000  26.00000000  32.00000000
Ag  12.00000000  26.00000000  34.00000000
Ag  14.00000000  24.00000000  34.00000000
Ag  16.00000000  24.00000000  32.00000000
Ag  18.00000000  26.00000000  32.00000000
Ag  16.00000000  26.00000000  34.00000000
Ag  18.00000000  24.00000000  34.00000000
Ag  20.00000000  24.00000000  32.00000000
Ag  22.00000000  26.00000000  32.00000000
Ag  20.00000000  26.00000000  34.00000000
Ag  22.00000000  24.00000000  34.00000000
Ag  24.00000000  24.00000000  32.00000000
Ag  26.00000000  26.00000000  32.00000000
Ag  24.00000000  26.00000000  34.00000000
Ag  26.00000000  24.00000000  34.00000000
Ag  28.00000000  24.00000000  32.00000000
Ag  30.00000000  26.00000000  32.00000000
Ag  28.00000000  26.00000000  34.00000000
Ag  30.00000000  24.00000000  34.00000000
Ag  32.00000000  24.00000000  32.00000000
Ag  34.00000000  26.00000000  32.00000000
Ag  32.00000000  26.00000000  34.00000000
Ag  34.00000000  24.00000000  34.00000000
Ag  36.00000000  24.00000000  32.00000000
Ag  38.00000000  26.00000000  32.00000000
Ag  36.00000000  26.00000000  34.00000000
Ag  38.00000000  24.00000000  34.00000000
Ag  0.00000000  28.00000000  32.00000000
Ag  2.00000000  30.00000000  32.00000000
Ag  0.00000000  30.00000000  34.00000000
Ag  2.00000000  28.00000000  34.00000000
Ag  4.00000000  28.00000000  32.00000000
Ag  6.00000000  30.00000000  32.00000000
Ag  4.00000000  30.00000000  34.00000000
Ag  6.00000000  28.00000000  34.00000000
Ag  8.00000000  28.00000000  32.00000000
Ag  10.00000000  30.00000000  32.00000000
Ag  8.00000000  30.00000000  34.00000000
Ag  10.00000000  28.00000000  34.00000000
Ag  12.00000000  28.00000000  32.00000000
Ag  14.00000000  30.00000000  32.00000000
Ag  12.00000000  30.00000000  34.00000000
Ag  14.00000000  28.00000000  34.00000000
Ag  16.00000000  28.00000000  32.00000000
Ag  18.00000000  30.00000000  32.00000000
Ag  16.00000000  30.00000000  34.00000000
Ag  18.00000000  28.00000000  34.00000000
Ag  20.00000000  28.00000000  32.00000000
Ag  22.00000000  30.00000000  32.00000000
Ag  20.00000000  30.00000000  34.00000000
Ag  22.00000000  28.00000000  34.00000000
Ag  24.00000000  28.00000000  32.00000000
Ag  26.00000000  30.00000000  32.00000000
Ag  24.00000000  30.00000000  34.00000000
Ag  26.00000000  28.00000000  34.00000000
Ag  28.00000000  28.00000000  32.00000000
Ag  30.00000000  30.00000000  32.00000000
Ag  28.00000000  30.00000000  34.00000000
Ag  30.00000000  28.00000000  34.00000000
Ag  32.00000000  28.00000000  32.00000000
Ag  34.00000000  30.00000000  32.00000000
Ag  32.00000000  30.00000000  34.00000000
Ag  34.00000000  28.00000000  34.00000000
Ag  36.00000000  28.00000000  32.00000000
Ag  38.00000000  30.00000000  32.00000000
Ag  36.00000000  30.00000000  34.00000000
Ag  38.00000000  28.00000000  34.00000000
Ag  0.00000000  32.00000000  32.00000000
Ag  2.00000000  34.00000000  32.00000000
Ag  0.00000000  34.00000000  34.00000000
Ag  2.00000000  32.00000000  34.00000000
Ag  4.00000000  32.00000000  32.00000000
Ag  6.00000000  34.00000000  32.00000000
Ag  4.00000000  34.00000000  34.00000000
Ag  6.00000000  32.00000000  34.00000000
Ag  8.00000000  32.00000000  32.00000000
Ag  10.00000000  34.00000000  32.00000000
Ag  8.00000000  34.00000000  34.00000000
Ag  10.00000000  32.00000000  34.00000000
Ag  12.00000000  32.00000000  32.00000000
Ag  14.00000000  34.00000000  32.00000000
Ag  12.00000000  34.00000000  34.00000000
Ag  14.00000000  32.00000000  34.00000000
Ag  16.00000000  32.00000000  32.00000000
Ag  18.00000000  34.00000000  32.00000000
Ag  16.00000000  34.00000000  34.00000000
Ag  18.00000000  32.00000000  34.00000000
Ag  20.00000000  32.00000000  32.00000000
Ag  22.00000000  34.00000000  32.00000000
Ag  20.00000000  34.00000000  34.00000000
Ag  22.00000000  32.00000000  34.00000000
Ag  24.00000000  32.00000000  32.00000000
Ag  26.00000000  34.00000000  32.00000000
Ag  24.00000000  34.00000000  34.00000000
Ag  26.00000000  32.00000000  34.00000000
Ag  28.00000000  32.00000000  32.00000000
Ag  30.00000000  34.00000000  32.00000000
Ag  28.00000000  34.00000000  34.00000000
Ag  30.00000000  32.00000000  34.00000000
Ag  32.00000000  32.00000000  32.00000000
Ag  34.00000000  34.00000000  32.00000000
Ag  32.00000000  34.00000000  34.00000000
Ag  34.00000000  32.00000000  34.00000000
Ag  36.00000000  32.00000000  32.00000000
Ag  38.00000000  34.00000000  32.00000000
Ag  36.00000000  34.00000000  34.00000000
Ag  38.00000000  32.00000000  34.00000000
Ag  0.00000000  36.00000000  32.00000000
Ag  2.00000000  38.00000000  32.00000000
Ag  0.00000000  38.00000000  34.00000000
Ag  2.00000000  36.00000000  34.00000000
Ag  4.00000000  36.00000000  32.00000000
Ag  6.00000000  38.00000000  32.00000000
Ag  4.00000000  38.00000000  34.00000000
Ag  6.00000000  36.00000000  34.00000000
Ag  8.00000000  36.00000000  32.00000000
Ag  10.00000000  38.00000000  32.00000000
Ag  8.00000000  38.00000000  34.00000000
Ag  10.00000000  36.00000000  34.00000000
Ag  12.00000000  36.00000000  32.00000000
Ag  14.00000000  38.00000000  32.00000000
Ag  12.00000000  38.00000000  34.00000000
Ag  14.00000000  36.00000000  34.00000000
Ag  16.00000000  36.00000000  32.00000000
Ag  18.00000000  38.00000000  32.00000000
Ag  16.00000000  38.00000000  34.00000000
Ag  18.00000000  36.00000000  34.00000000
Ag  20.00000000  36.00000000  32.00000000
Ag  22.00000000  38.00000000  32.00000000
Ag  20.00000000  38.00000000  34.00000000
Ag  22.00000000  36.00000000  34.00000000
Ag  24.00000000  36.00000000  32.00000000
Ag  26.00000000  38.00000000  32.00000000
Ag  24.00000000  38.00000000  34.00000000
Ag  26.00000000  36.00000000  34.00000000
Ag  28.00000000  36.00000000  32.00000000
Ag  30.00000000  38.00000000  32.00000000
Ag  28.00000000  38.00000000  34.00000000
Ag  30.00000000  36.00000000  34.00000000
Ag  32.00000000  36.00000000  32.00000000
Ag  34.00000000  38.00000000  32.00000000
Ag  32.00000000  38.00000000  34.00000000
Ag  34.00000000  36.00000000  34.00000000
Ag  36.00000000  36.00000000  32.00000000
Ag  38.00000000  38.00000000  32.00000000
Ag  36.00000000  38.00000000  34.00000000
Ag  38.00000000  36.00000000  34.00000000
Ag  0.00000000  0.00000000  36.00000000
Ag  2.00000000  2.00000000  36.00000000
Ag  0.00000000  2.00000000  38.00000000
Ag  2.00000000  0.00000000  38.00000000
Ag  4.00000000  0.00000000  36.00000000
Ag  6.00000000  2.00000000  36.00000000
Ag  4.00000000  2.00000000  38.00000000
Ag  6.00000000  0.00000000  38.00000000
Ag  8.00000000  0.00000000  36.00000000
Ag  10.00000000  2.00000000  36.00000000
Ag  8.00000000  2.00000000  38.00000000
Ag  10.00000000  0.00000000  38.00000000
Ag  12.00000000  0.00000000  36.00000000
Ag  14.00000000  2.00000000  36.00000000
Ag  12.00000000  2.00000000  38.00000000
Ag  14.00000000  0.00000000  38.00000000
Ag  16.00000000  0.00000000  36.00000000
Ag  18.00000000  2.00000000  36.00000000
Ag  16.00000000  2.00000000  38.00000000
Ag  18.00000000  0.00000000  38.00000000
Ag  20.00000000  0.00000000  36.00000000
Ag  22.00000000  2.00000000  36.00000000
Ag  20.00000000  2.00000000  38.00000000
Ag  22.00000000  0.00000000  38.00000000
Ag  24.00000000  0.00000000  36.00000000
Ag  26.00000000  2.00000000  36.00000000
Ag  24.00000000  2.00000000  38.00000000
Ag  26.00000000  0.00000000  38.00000000
Ag  28.00000000  0.00000000  36.00000000
Ag  30.00000000  2.00000000  36.00000000
Ag  28.00000000  2.00000000  38.00000000
Ag  30.00000000  0.00000000  38.00000000
Ag  32.00000000  0.00000000  36.00000000
Ag  34.00000000  2.00000000  36.00000000
Ag  32.00000000  2.00000000  38.00000000
Ag  34.00000000  0.00000000  38.00000000
Ag  36.00000000  0.00000000  36.00000000
Ag  38.00000000  2.00000000  36.00000000
Ag  36.00000000  2.00000000  38.00000000
Ag  38.00000000  0.00000000  38.00000000
Ag  0.00000000  4.00000000  36.00000000
Ag  2.00000000  6.00000000  36.00000000
Ag  0.00000000  6.00000000  38.00000000
Ag  2.00000000  4.00000000  38.00000000
Ag  4.00000000  4.00000000  36.00000000
Ag  6.00000000  6.00000000  36.00000000
Ag  4.00000000  6.00000000  38.00000000
Ag  6.00000000  4.00000000  38.00000000
Ag  8.00000000  4.00000000  36.00000000
Ag  10.00000000  6.00000000  36.00000000
Ag  8.00000000  6.00000000  38.00000000
Ag  10.00000000  4.00000000  38.00000000
Ag  12.00000000  4.00000000  36.00000000
Ag  14.00000000  6.00000000  36.00000000
Ag  12.00000000  6.00000000  38.00000000
Ag  14.00000000  4.00000000  38.00000000
Ag  16.00000000  4.00000000  36.00000000
Ag  18.00000000  6.00000000  36.00000000
Ag  16.00000000  6.00000000  38.00000000
Ag  18.00000000  4.00000000  38.00000000
Ag  20.00000000  4.00000000  36.00000000
Ag  22.00000000  6.00000000  36.00000000
Ag  20.00000000  6.00000000  38.00000000
Ag  22.00000000  4.00000000  38.00000000
Ag  24.00000000  4.00000000  36.00000000
Ag  26.00000000  6.00000000  36.00000000
Ag  24.00000000  6.00000000  38.00000000
Ag  26.00000000  4.00000000  38.00000000
Ag  28.00000000  4.00000000  36.00000000
Ag  30.00000000  6.00000000  36.00000000
Ag  28.00000000  6.00000000  38.00000000
Ag  30.00000000  4.00000000  38.00000000
Ag  32.00000000  4.00000000  36.00000000
Ag  34.00000000  6.00000000  36.00000000
Ag  32.00000000  6.00000000  38.00000000
Ag  34.00000000  4.00000000  38.00000000
Ag  36.00000000  4.00000000  36.00000000
Ag  38.00000000  6.00000000  36.00000000
Ag  36.00000000  6.00000000  38.00000000
Ag  38.00000000  4.00000000  38.00000000
Ag  0.00000000  8.00000000  36.00000000
Ag  2.00000000  10.00000000  36.00000000
Ag  0.00000000  10.00000000  38.00000000
Ag  2.00000000  8.00000000  38.00000000
Ag  4.00000000  8.00000000  36.00000000
Ag  6.00000000  10.00000000  36.00000000
Ag  4.00000000  10.00000000  38.00000000
Ag  6.00000000  8.00000000  38.00000000
Ag  8.00000000  8.00000000  36.00000000
Ag  10.00000000  10.00000000  36.00000000
Ag  8.00000000  10.00000000  38.00000000
Ag  10.00000000  8.00000000  38.00000000
Ag  12.00000000  8.00000000  36.00000000
Ag  14.00000000  10.00000000  36.00000000
Ag  12.00000000  10.00000000  38.00000000
Ag  14.00000000  8.00000000  38.00000000
Ag  16.00000000  8.00000000  36.00000000
Ag  18.00000000  10.00000000  36.00000000
Ag  16.00000000  10.00000000  38.00000000
Ag  18.00000000  8.00000000  38.00000000
Ag  20.00000000  8.00000000  36.00000000
Ag  22.00000000  10.00000000  36.00000000
Ag  20.00000000  10.00000000  38.00000000
Ag  22.00000000  8.00000000  38.00000000
Ag  24.00000000  8.00000000  36.00000000
Ag  26.00000000  10.00000000  36.00000000
Ag  24.00000000  10.00000000  38.00000000
Ag  26.00000000  8.00000000  38.00000000
Ag  28.00000000  8.00000000  36.00000000
Ag  30.00000000  10.00000000  36.00000000
Ag  28.00000000  10.00000000  38.00000000
Ag  30.00000000  8.00000000  38.00000000
Ag  32.00000000  8.00000000  36.00000000
Ag  34.00000000  10.00000000  36.00000000
Ag  32.00000000  10.00000000  38.00000000
Ag  34.00000000  8.00000000  38.00000000
Ag  36.00000000  8.00000000  36.00000000
Ag  38.00000000  10.00000000  36.00000000
Ag  36.00000000  10.00000000  38.00000000
Ag  38.00000000  8.00000000  38.00000000
Ag  0.00000000  12.00000000  36.00000000
Ag  2.00000000  14.00000000  36.00000000
Ag  0.00000000  14.00000000  38.00000000
Ag  2.00000000  12.00000000  38.00000000
Ag  4.00000000  12.00000000  36.00000000
Ag  6.00000000  14.00000000  36.00000000
Ag  4.00000000  14.00000000  38.00000000
Ag  6.00000000  12.00000000  38.00000000
Ag  8.00000000  12.00000000  36.00000000
Ag  10.00000000  14.00000000  36.00000000
Ag  8.00000000  14.00000000  38.00000000
Ag  10.00000000  12.00000000  38.00000000
Ag  12.00000000  12.00000000  36.00000000
Ag  14.00000000  14.00000000  36.00000000
Ag  12.00000000  14.00000000  38.00000000
Ag  14.00000000  12.00000000  38.00000000
Ag  16.00000000  12.00000000  36.00000000
Ag  18.00000000  14.00000000  36.00000000
Ag  16.00000000  14.00000000  38.00000000
Ag  18.00000000  12.00000000  38.00000000
Ag  20.00000000  12.00000000  36.00000000
Ag  22.00000000  14.00000000  36.00000000
Ag  20.00000000  14.00000000  38.00000000
Ag  22.00000000  12.00000000  38.00000000
Ag  24.00000000  12.00000000  36.00000000
Ag  26.00000000  14.00000000  36.00000000
Ag  24.00000000  14.00000000  38.00000000
Ag  26.00000000  12.00000000  38.00000000
Ag  28.00000000  12.00000000  36.00000000
Ag  30.00000000  14.00000000  36.00000000
Ag  28.00000000  14.00000000  38.00000000
Ag  30.00000000  12.00000000  38.00000000
Ag  32.00000000  12.00000000  36.00000000
Ag  34.00000000  14.00000000  36.00000000
Ag  32.00000000  14.00000000  38.00000000
Ag  34.00000000  12.00000000  38.00000000
Ag  36.00000000  12.00000000  36.00000000
Ag  38.00000000  14.00000000  36.00000000
Ag  36.00000000  14.00000000  38.00000000
Ag  38.00000000  12.00000000  38.00000000
Ag  0.00000000  16.00000000  36.00000000
Ag  2.00000000  18.00000000  36.00000000
Ag  0.00000000  18.00000000  38.00000000
Ag  2.00000000  16.00000000  38.00000000
Ag  4.00000000  16.00000000  36.00000000
Ag  6.00000000  18.00000000  36.00000000
Ag  4.00000000  18.00000000  38.00000000
Ag  6.00000000  16.00000000  38.00000000
Ag  8.00000000  16.00000000  36.00000000
Ag  10.00000000  18.00000000  36.00000000
Ag  8.00000000  18.00000000  38.00000000
Ag  10.00000000  16.00000000  38.00000000
Ag  12.00000000  16.00000000  36.00000000
Ag  14.00000000  18.00000000  36.00000000
Ag  12.00000000  18.00000000  38.00000000
Ag  14.00000000  16.00000000  38.00000000
Ag  16.00000000  16.00000000  36.00000000
Ag  18.00000000  18.00000000  36.00000000
Ag  16.00000000  18.00000000  38.00000000
Ag  18.00000000  16.00000000  38.00000000
Ag  20.00000000  16.00000000  36.00000000
Ag  22.00000000  18.00000000  36.00000000
Ag  20.00000000  18.00000000  38.00000000
Ag  22.00000000  16.00000000  38.00000000
Ag  24.00000000  16.00000000  36.00000000
Ag  26.00000000  18.00000000  36.00000000
Ag  24.00000000  18.00000000  38.00000000
Ag  26.00000000  16.00000000  38.00000000
Ag  28.00000000  16.00000000  36.00000000
Ag  30.00000000  18.00000000  36.00000000
Ag  28.00000000  18.00000000  38.00000000
Ag  30.00000000  16.00000000  38.00000000
Ag  32.00000000  16.00000000  36.00000000
Ag  34.00000000  18.00000000  36.00000000
Ag  32.00000000  18.00000000  38.00000000
Ag  34.00000000  16.00000000  38.00000000
Ag  36.00000000  16.00000000  36.00000000
Ag  38.00000000  18.00000000  36.00000000
Ag  36.00000000  18.00000000  38.00000000
Ag  38.00000000  16.00000000  38.00000000
Ag  0.00000000  20.00000000  36.00000000
Ag  2.00000000  22.00000000  36.00000000
Ag  0.00000000  22.00000000  38.00000000
Ag  2.00000000  20.00000000  38.00000000
Ag  4.00000000  20.00000000  36.00000000
Ag  6.00000000  22.00000000  36.00000000
Ag  4.00000000  22.00000000  38.00000000
Ag  6.00000000  20.00000000  38.00000000
Ag  8.00000000  20.00000000  36.00000000
Ag  10.00000000  22.00000000  36.00000000
Ag  8.00000000  22.00000000  38.00000000
Ag  10.00000000  20.00000000  38.00000000
Ag  12.00000000  20.00000000  36.00000000
Ag  14.00000000  22.00000000  36.00000000
Ag  12.00000000  22.00000000  38.00000000
Ag  14.00000000  20.00000000  38.00000000
Ag  16.00000000  20.00000000  36.00000000
Ag  18.00000000  22.00000000  36.00000000
Ag  16.00000000  22.00000000  38.00000000
Ag  18.00000000  20.00000000  38.00000000
Ag  20.00000000  20.00000000  36.00000000
Ag  22.00000000  22.00000000  36.00000000
Ag  20.00000000  22.00000000  38.00000000
Ag  22.00000000  20.00000000  38.00000000
Ag  24.00000000  20.00000000  36.00000000
Ag  26.00000000  22.00000000  36.00000000
Ag  24.00000000  22.00000000  38.00000000
Ag  26.00000000  20.00000000  38.00000000
Ag  28.00000000  20.00000000  36.00000000
Ag  30.00000000  22.00000000  36.00000000
Ag  28.00000000  22.00000000  38.00000000
Ag  30.00000000  20.00000000  38.00000000
Ag  32.00000000  20.00000000  36.00000000
Ag  34.00000000  22.00000000  36.00000000
Ag  32.00000000  22.00000000  38.00000000
Ag  34.00000000  20.00000000  38.00000000
Ag  36.00000000  20.00000000  36.00000000
Ag  38.00000000  22.00000000  36.00000000
Ag  36.00000000  22.00000000  38.00000000
Ag  38.00000000  20.00000000  38.00000000
Ag  0.00000000  24.00000000  36.00000000
Ag  2.00000000  26.00000000  36.00000000
Ag  0.00000000  26.00000000  38.00000000
Ag  2.00000000  24.00000000  38.00000000
Ag  4.00000000  24.00000000  36.00000000
Ag  6.00000000  26.00000000  36.00000000
Ag  4.00000000  26.00000000  38.00000000
Ag  6.00000000  24.00000000  38.00000000
Ag  8.00000000  24.00000000  36.00000000
Ag  10.00000000  26.00000000  36.00000000
Ag  8.00000000  26.00000000  38.00000000
Ag  10.00000000  24.00000000  38.00000000
Ag  12.00000000  24.00000000  36.00000000
Ag  14.00000000  26.00000000  36.00000000
Ag  12.00000000  26.00000000  38.00000000
Ag  14.00000000  24.00000000  38.00000000
Ag  16.00000000  24.00000000  36.00000000
Ag  18.00000000  26.00000000  36.00000000
Ag  16.00000000  26.00000000  38.00000000
Ag  18.00000000  24.00000000  38.00000000
Ag  20.00000000  24.00000000  36.00000000
Ag  22.00000000  26.00000000  36.00000000
Ag  20.00000000  26.00000000  38.00000000
Ag  22.00000000  24.00000000  38.00000000
Ag  24.00000000  24.00000000  36.00000000
Ag  26.00000000  26.00000000  36.00000000
Ag  24.00000000  26.00000000  38.00000000
Ag  26.00000000  24.00000000  38.00000000
Ag  28.00000000  24.00000000  36.00000000
Ag  30.00000000  26.00000000  36.00000000
Ag  28.00000000  26.00000000  38.00000000
Ag  30.00000000  24.00000000  38.00000000
Ag  32.00000000  24.00000000  36.00000000
Ag  34.00000000  26.00000000  36.00000000
Ag  32.00000000  26.00000000  38.00000000
Ag  34.00000000  24.00000000  38.00000000
Ag  36.00000000  24.00000000  36.00000000
Ag  38.00000000  26.00000000  36.00000000
Ag  36.00000000  26.00000000  38.00000000
Ag  38.00000000  24.00000000  38.00000000
Ag  0.00000000  28.00000000  36.00000000
Ag  2.00000000  30.00000000  36.00000000
Ag  0.00000000  30.00000000  38.00000000
Ag  2.00000000  28.00000000  38.00000000
Ag  4.00000000  28.00000000  36.00000000
Ag  6.00000000  30.00000000  36.00000000
Ag  4.00000000  30.00000000  38.00000000
Ag  6.00000000  28.00000000  38.00000000
Ag  8.00000000  28.00000000  36.00000000
Ag  10.00000000  30.00000000  36.00000000
Ag  8.00000000  30.00000000  38.00000000
Ag  10.00000000  28.00000000  38.00000000
Ag  12.00000000  28.00000000  36.00000000
Ag  14.00000000  30.00000000  36.00000000
Ag  12.00000000  30.00000000  38.00000000
Ag  14.00000000  28.00000000  38.00000000
Ag  16.00000000  28.00000000  36.00000000
Ag  18.00000000  30.00000000  36.00000000
Ag  16.00000000  30.00000000  38.00000000
Ag  18.00000000  28.00000000  38.00000000
Ag  20.00000000  28.00000000  36.00000000
Ag  22.00000000  30.00000000  36.00000000
Ag  20.00000000  30.00000000  38.00000000
Ag  22.00000000  28.00000000  38.00000000
Ag  24.00000000  28.00000000  36.00000000
Ag  26.00000000  30.00000000  36.00000000
Ag  24.00000000  30.00000000  38.00000000
Ag  26.00000000  28.00000000  38.00000000
Ag  28.00000000  28.00000000  36.00000000
Ag  30.00000000  30.00000000  36.00000000
Ag  28.00000000  30.00000000  38.00000000
Ag  30.00000000  28.00000000  38.00000000
Ag  32.00000000  28.00000000  36.00000000
Ag  34.00000000  30.00000000  36.00000000
Ag  32.00000000  30.00000000  38.00000000
Ag  34.00000000  28.00000000  38.00000000
Ag  36.00000000  28.00000000  36.00000000
Ag  38.00000000  30.00000000  36.00000000
Ag  36.00000000  30.00000000  38.00000000
Ag  38.00000000  28.00000000  38.00000000
Ag  0.00000000  32.00000000  36.00000000
Ag  2.00000000  34.00000000  36.00000000
Ag  0.00000000  34.00000000  38.00000000
Ag  2.00000000  32.00000000  38.00000000
Ag  4.00000000  32.00000000  36.00000000
Ag  6.00000000  34.00000000  36.00000000
Ag  4.00000000  34.00000000  38.00000000
Ag  6.00000000  32.00000000  38.00000000
Ag  8.00000000  32.00000000  36.00000000
Ag  10.00000000  34.00000000  36.00000000
Ag  8.00000000  34.00000000  38.00000000
Ag  10.00000000  32.00000000  38.00000000
Ag  12.00000000  32.00000000  36.00000000
Ag  14.00000000  34.00000000  36.00000000
Ag  12.00000000  34.00000000  38.00000000
Ag  14.00000000  32.00000000  38.00000000
Ag  16.00000000  32.00000000  36.00000000
Ag  18.00000000  34.00000000  36.00000000
Ag  16.00000000  34.00000000  38.00000000
Ag  18.00000000  32.00000000  38.00000000
Ag  20.00000000  32.00000000  36.00000000
Ag  22.00000000  34.00000000  36.00000000
Ag  20.00000000  34.00000000  38.00000000
Ag  22.00000000  32.00000000  38.00000000
Ag  24.00000000  32.00000000  36.00000000
Ag  26.00000000  34.00000000  36.00000000
Ag  24.00000000  34.00000000  38.00000000
Ag  26.00000000  32.00000000  38.00000000
Ag  28.00000000  32.00000000  36.00000000
Ag  30.00000000  34.00000000  36.00000000
Ag  28.00000000  34.00000000  38.00000000
Ag  30.00000000  32.00000000  38.00000000
Ag  32.00000000  32.00000000  36.00000000
Ag  34.00000000  34.00000000  36.00000000
Ag  32.00000000  34.00000000  38.00000000
Ag  34.00000000  32.00000000  38.00000000
Ag  36.00000000  32.00000000  36.00000000
Ag  38.00000000  34.00000000  36.00000000
Ag  36.00000000  34.00000000  38.00000000
Ag  38.00000000  32.00000000  38.00000000
Ag  0.00000000  36.00000000  36.00000000
Ag  2.00000000  38.00000000  36.00000000
Ag  0.00000000  38.00000000  38.00000000
Ag  2.00000000  36.00000000  38.00000000
Ag  4.00000000  36.00000000  36.00000000
Ag  6.00000000  38.00000000  36.00000000
Ag  4.00000000  38.00000000  38.00000000
Ag  6.00000000  36.00000000  38.00000000
Ag  8.00000000  36.00000000  36.00000000
Ag  10.00000000  38.00000000  36.00000000
Ag  8.00000000  38.00000000  38.00000000
Ag  10.00000000  36.00000000  38.00000000
Ag  12.00000000  36.00000000  36.00000000
Ag  14.00000000  38.00000000  36.00000000
Ag  12.00000000  38.00000000  38.00000000
Ag  14.00000000  36.00000000  38.00000000
Ag  16.00000000  36.00000000  36.00000000
Ag  18.00000000  38.00000000  36.00000000
Ag  16.00000000  38.00000000  38.00000000
Ag  18.00000000  36.00000000  38.00000000
Ag  20.00000000  36.00000000  36.00000000
Ag  22.00000000  38.00000000  36.00000000
Ag  20.00000000  38.00000000  38.00000000
Ag  22.00000000  36.00000000  38.00000000
Ag  24.00000000  36.00000000  36.00000000
Ag  26.00000000  38.00000000  36.00000000
Ag  24.00000000  38.00000000  38.00000000
Ag  26.00000000  36.00000000  38.00000000
Ag  28.00000000  36.00000000  36.00000000
Ag  30.00000000  38.00000000  36.00000000
Ag  28.00000000  38.00000000  38.00000000
Ag  30.00000000  36.00000000  38.00000000
Ag  32.00000000  36.00000000  36.00000000
Ag  34.00000000  38.00000000  36.00000000
Ag  32.00000000  38.00000000  38.00000000
Ag  34.00000000  36.00000000  38.00000000
Ag  36.00000000  36.00000000  36.00000000
Ag  38.00000000  38.00000000  36.00000000
Ag  36.00000000  38.00000000  38.00000000
Ag  38.00000000  36.00000000  38.00000000
